
 &INPUT
   prefix         = 'poly_pa'
   postfix        = '_WanT'
   work_dir       = './SCRATCH'
   datafile_dft   = './CRYSTAL/pa_LDAPZ.xml'
   fileout        = './dos_PA_cry.dat'
   do_orthoovp    = .FALSE.
   nk(1) = 200
   nk(2) = 1
   nk(3) = 1
   delta = 0.05
   emin  = -20.0
   emax  =  5.0
   ne    = 1200
   smearing_type = 'gaussian'
 /


