
 &INPUT
   prefix    = 'hydrogen_H6'
   postfix   = '_WanT'
   work_dir  = './SCRATCH'
   fileout   = 'dos_H6_qe.dat'
!   fileout   = 'dos_H6_qe_NN.dat'
!   ircut(3) = 1
   nk(1)     = 1
   nk(2)     = 1
   nk(3)     = 400
   delta     = 0.05
   emin      = -5.0
   emax      = 10.0
   ne        = 2000
!   smearing_type = 'lorentzian'
 /
