   &CONTROL
      calculation = 'scf',
      restart_mode='from_scratch',
      verbosity='default',
      prefix='H2_gamma',
      nstep=100,
      tstress = .false.,
      tprnfor = .true.,
      pseudo_dir = '../pseudo',
      outdir = './SCRATCH/'
      wf_collect = .TRUE.
   /
   &SYSTEM
      ibrav=8, 
      celldm(1)=20.0, 
      celldm(2)=1.0,
      celldm(3)=2.5000000
      nat=20, 
      ntyp=1,
      ecutwfc=40.0,
      ecutrho=160.0,
      nbnd=20
   /
   &ELECTRONS
      electron_maxstep = 100,
      mixing_mode = 'plain',
      mixing_beta = 0.3,
      conv_thr =  1.0d-8,
   /
ATOMIC_SPECIES
  H  1.008   H.pz-vbc.UPF
ATOMIC_POSITIONS {bohr}
H    0.0  0.0  0.0
H    0.0  0.0  2.0
H    0.0  0.0  5.0
H    0.0  0.0  7.0
H    0.0  0.0  10.0
H    0.0  0.0  12.0
H    0.0  0.0  15.0
H    0.0  0.0  17.0
H    0.0  0.0  20.0
H    0.0  0.0  22.0
H    0.0  0.0  25.0
H    0.0  0.0  27.0
H    0.0  0.0  30.0
H    0.0  0.0  32.0
H    0.0  0.0  35.0
H    0.0  0.0  37.0
H    0.0  0.0  40.0
H    0.0  0.0  42.0
H    0.0  0.0  45.0
H    0.0  0.0  47.0
K_POINTS {gamma}

