5 atoms
   &CONTROL
      calculation = 'scf',
      restart_mode='from_scratch',
      verbosity='default',
      prefix='gold_US',
      nstep=100,
      tstress = .false.,
      tprnfor = .true.,
      pseudo_dir = '../pseudo',
      outdir = './SCRATCH',
      wf_collect = .TRUE.
   /
   &SYSTEM
      ibrav=8, 
      celldm(1)=20.0, 
      celldm(2)=1.0,
      celldm(3)=2.83459031666153290864
      nat=12, 
      ntyp=1,
      ecutwfc=25.0,
      ecutrho=200.0,
      occupations='smearing',
      smearing='gaussian',
      degauss=0.01,
   /
   &ELECTRONS
      electron_maxstep = 100,
      mixing_mode = 'plain',
      mixing_beta = 0.3,
      conv_thr =  1.0d-8,
   /
ATOMIC_SPECIES
  Au   196.9665   Au.pw91-d-van.UPF
ATOMIC_POSITIONS {angstrom}
Au        0.00000     0.00000    0.00000
Au        0.00000     0.00000    2.50000
Au        0.00000     0.00000    5.00000
Au        0.00000     0.00000    7.50000
Au        0.00000     0.00000   10.00000
Au        0.00000     0.00000   12.50000
Au        0.00000     0.00000   15.00000
Au        0.00000     0.00000   17.50000
Au        0.00000     0.00000   20.00000
Au        0.00000     0.00000   22.50000
Au        0.00000     0.00000   25.00000
Au        0.00000     0.00000   27.50000
K_POINTS {gamma}

