
&CONTROL
   prefix = 'gold_US'
   postfix = '_WanT'
   work_dir = './SCRATCH'
/

&SUBSPACE
   dimwann = 72
   win_max = 1.800
   froz_max = -2.0
/

&LOCALIZATION
   maxiter0_wan = 100
   maxiter1_wan = 1500
   ncg = 5    
/

WANNIER_CENTERS 
atomic   1  0  0
atomic   1  2 -2
atomic   1  2 -1
atomic   1  2  0
atomic   1  2  1
atomic   1  2  2
atomic   2  0  0
atomic   2  2 -2
atomic   2  2 -1
atomic   2  2  0
atomic   2  2  1
atomic   2  2  2
atomic   3  0  0
atomic   3  2 -2
atomic   3  2 -1
atomic   3  2  0
atomic   3  2  1
atomic   3  2  2
atomic   4  0  0
atomic   4  2 -2
atomic   4  2 -1
atomic   4  2  0
atomic   4  2  1
atomic   4  2  2
atomic   5  0  0
atomic   5  2 -2
atomic   5  2 -1
atomic   5  2  0
atomic   5  2  1
atomic   5  2  2
atomic   6  0  0
atomic   6  2 -2
atomic   6  2 -1
atomic   6  2  0
atomic   6  2  1
atomic   6  2  2
atomic   7  0  0
atomic   7  2 -2
atomic   7  2 -1
atomic   7  2  0
atomic   7  2  1
atomic   7  2  2
atomic   8  0  0
atomic   8  2 -2
atomic   8  2 -1
atomic   8  2  0
atomic   8  2  1
atomic   8  2  2
atomic   9  0  0
atomic   9  2 -2
atomic   9  2 -1
atomic   9  2  0
atomic   9  2  1
atomic   9  2  2
atomic  10  0  0
atomic  10  2 -2
atomic  10  2 -1
atomic  10  2  0
atomic  10  2  1
atomic  10  2  2
atomic  11  0  0
atomic  11  2 -2
atomic  11  2 -1
atomic  11  2  0
atomic  11  2  1
atomic  11  2  2
atomic  12  0  0
atomic  12  2 -2
atomic  12  2 -1
atomic  12  2  0
atomic  12  2  1
atomic  12  2  2

