# Au chain
# Generation of the KSS file

# Number of datasets: 2-step calculation
ndtset 2

# Definition of the unit cell
acell 3*20.0                  # Lattice constants (in atomic units)

rprim 1.0 0.0 0.0             # Cubic primitive lattice
      0.0 1.0 0.0             # (to be scaled by acell)
      0.0 0.0 0.236216

# Definition of the system
ntypat 1                      # Number of species
znucl  79                     # Z number of each species
natom  1                      # Number of atoms
typat  1                      # Type of each atom (index in znucl)
xred    0.0 0.0 0.2
occopt 7                      # gaussian smearing
tsmear 0.005                  # spread [Ha]

# Definition of the plane-wave basis set
ecut  25.0                    # Kinetic energy cut-off, in Hartree

# IO
accesswff  3                  # ETSF_IO

## parallelism
#wfoptalg   1
#nbdblock   4

# Step 1: determine the ground state
nstep1  50                    # Maximum number of SCF cycles
iscf1    3                    # Algorithm: Anderson mixing of the potential
diemix1  0.3
diemac1  3.0
nband1  10                    # Number of bands
toldfe1  1.0d-10              # Tolerance on total energy
kptopt1  1
ngkpt1   1 1 8
#istwfk1  8*1                  # wfc storage flag
prtden1  1                    # Store electronic density in a file

# Step 2: obtain the Kohn-Sham band structure
getden2    1                  # Read electronic density from step 1
iscf2     -2                  # Non self-consistent calculation
tolwfr2    1.0d-16            # Tolerance on wavefunctions
nband2     10                 # Number of bands for the system
nbandkss2  10                 # Number of bands to output to the KSS file
kssform2   3                  # Format of the KSS file
symmorphi2 0                  # Disallow non-symmorphic operations (required)
istwfk2    8*1                # Wavefunction storage mode for each k-point
nkpt2      8
kpt2       0.0000  0.0000   0.0000
           0.0000  0.0000   0.1250
           0.0000  0.0000   0.2500
           0.0000  0.0000   0.3750
           0.0000  0.0000   0.5000
           0.0000  0.0000   0.6250
           0.0000  0.0000   0.7500
           0.0000  0.0000   0.8750

