
 &INPUT
   prefix = 'gold'
   postfix = '_WanT'
   fileout = 'dos_Au.dat'
   nk(1) = 1
   nk(2) = 1
   nk(3) = 400
   use_nn( 3 ) = .TRUE.  
   delta = 0.05
   smearing_type = 'gaussian'
   projdos = .TRUE.
 /
