
 &INPUT
   prefix = 'gold-o_DS2'
   postfix = '_WanT'
   work_dir = './SCRATCH'
   fileout = 'dos_Au_abi.dat'
!   fileout = 'dos_Au_abi_NN.dat'
!   ircut(3) = 1
   nk(1) = 1
   nk(2) = 1
   nk(3) = 400
   delta = 0.05
   smearing_type = 'gaussian'
   projdos = .TRUE.
 /

