Infinite Gold Chain USPP
1 atom/cell, Lattice Parameter = 2.5 Ang
   &CONTROL
      calculation = 'nscf',
      restart_mode='from_scratch',
      verbosity='default',
      prefix='gold_US',
      nstep=100,
      tstress = .false.,
      tprnfor = .true.,
      pseudo_dir = './',
   /
   &SYSTEM
      ibrav=8, 
      celldm(1)=20.0, 
      celldm(2)=1.0,
      celldm(3)=0.236216,
      nat=1, 
      ntyp=1,
      ecutwfc=25.0,
      ecutrho=200.0,
      occupations='smearing',
      smearing='gaussian',
      degauss=0.01,
      nbnd=10
      nosym = .true.
   /
   &ELECTRONS
      electron_maxstep = 100,
      mixing_mode = 'plain',
      mixing_beta = 0.3,
      conv_thr =  1.0d-8,
   /
ATOMIC_SPECIES
  Au   196.9665   Au.pw91-d-van.UPF
ATOMIC_POSITIONS {angstrom}
Au        0.00000     0.00000    0.50000
K_POINTS {crystal}
    32
   -0.500000000   -0.500000000   -0.500000000       0.06250000
    0.000000000   -0.500000000   -0.500000000       0.06250000
   -0.500000000    0.000000000   -0.500000000       0.06250000
    0.000000000    0.000000000   -0.500000000       0.06250000
   -0.500000000   -0.500000000   -0.375000000       0.06250000
    0.000000000   -0.500000000   -0.375000000       0.06250000
   -0.500000000    0.000000000   -0.375000000       0.06250000
    0.000000000    0.000000000   -0.375000000       0.06250000
   -0.500000000   -0.500000000   -0.250000000       0.06250000
    0.000000000   -0.500000000   -0.250000000       0.06250000
   -0.500000000    0.000000000   -0.250000000       0.06250000
    0.000000000    0.000000000   -0.250000000       0.06250000
   -0.500000000   -0.500000000   -0.125000000       0.06250000
    0.000000000   -0.500000000   -0.125000000       0.06250000
   -0.500000000    0.000000000   -0.125000000       0.06250000
    0.000000000    0.000000000   -0.125000000       0.06250000
   -0.500000000   -0.500000000    0.000000000       0.06250000
    0.000000000   -0.500000000    0.000000000       0.06250000
   -0.500000000    0.000000000    0.000000000       0.06250000
    0.000000000    0.000000000    0.000000000       0.06250000
   -0.500000000   -0.500000000    0.125000000       0.06250000
    0.000000000   -0.500000000    0.125000000       0.06250000
   -0.500000000    0.000000000    0.125000000       0.06250000
    0.000000000    0.000000000    0.125000000       0.06250000
   -0.500000000   -0.500000000    0.250000000       0.06250000
    0.000000000   -0.500000000    0.250000000       0.06250000
   -0.500000000    0.000000000    0.250000000       0.06250000
    0.000000000    0.000000000    0.250000000       0.06250000
   -0.500000000   -0.500000000    0.375000000       0.06250000
    0.000000000   -0.500000000    0.375000000       0.06250000
   -0.500000000    0.000000000    0.375000000       0.06250000
    0.000000000    0.000000000    0.375000000       0.06250000
