
 &INPUT
   prefix = 'gold_US'
   postfix = '_WanT'
   work_dir = './'
   datatype = 'modulus'
   wann = '1-3,6'
   r3min = -1.5
   r3max =  1.5
 /
