&projwfc
  prefix='gold'
  outdir='./SCRATCH'
  filpdos='./SCRATCH/gold'
/
