
&CONTROL
   prefix = 'gold_US'
   postfix = '_WanT'
   work_dir = './'
   verbosity = 'high'
/

&SUBSPACE
   dimwann = 6   
   win_max = 1.800
   froz_max = -2.0
/

&LOCALIZATION
   maxiter0_wan = 100
   maxiter1_wan = 1500
   ncg = 5    
/

WANNIER_CENTERS 
atomic   1  0  0
atomic   1  2 -2
atomic   1  2 -1
atomic   1  2  0
atomic   1  2  1
atomic   1  2  2

