
 &INPUT
   prefix = 'benzene_US'
   postfix = '_WanT'
   work_dir = './'
   nkpts_in  = 1
   nkpts_max = 100
   
 /
G
0.0 0.0 0.0
