
&CONTROL
   prefix = 'benzene_US'
   postfix = '_WanT'
   work_dir = './'
   verbosity = 'high'
/

&SUBSPACE
   win_max = 2.0
   dimwann = 18
   maxiter_dis = 5000
/

&LOCALIZATION
   a_condmin = 20.0
   alpha0_wan = 0.25
   alpha1_wan = 0.25
   maxiter0_wan = 200
   maxiter1_wan = 4000
   ncg = 5    
   nshells = 1  
   nwhich(1) = 1  
/

WANNIER_CENTERS {bohr}
1gauss    -5.332809448    2.481211424    3.123718739     0 0  1.0   1.0
1gauss    -3.497884274    5.655007362    3.116159439     0 0  1.0   1.0
1gauss    -1.664849401    4.770615578    3.097262383     0 0  1.0   1.0
1gauss    -3.650007248    3.626385689    3.111435413     0 0  1.0   1.0
1gauss     0.168185651    5.653118134    3.084034204     0 0  1.0   1.0
1gauss     0.318418950    3.623551369    3.075530529     0 0  1.0   1.0
1gauss     1.999330997    2.477432013    3.055688381     0 0  1.0   1.0
1gauss     0.317474097    1.332257509    3.067971706     0 0  1.0   1.0
1gauss     0.165351093   -0.696364343    3.062302589     0 0  1.0   1.0
1gauss    -1.666739106    0.188027859    3.082144737     0 0  1.0   1.0
1gauss    -3.500719070   -0.694474578    3.095372677     0 0  1.0   1.0
1gauss    -3.650952339    1.335092068    3.103876591     0 0  1.0   1.0
atomic   2   1 0     1.0    ! *** Cpz
atomic   4   1 0     1.0
atomic   6   1 0     1.0
atomic   8   1 0     1.0
atomic  10   1 0     1.0
atomic  12   1 0     1.0

