Silicon USPP

 &control
    calculation='nscf'
    pseudo_dir = './',
    prefix='silicon'
 /
 &system    
    ibrav=  2, celldm(1) =10.599478, nat=  2, ntyp= 1,
    ecutwfc =15.0,  
    ecutrho =150.0,  
    nbnd = 16
 /
 &electrons
    mixing_mode = 'plain'
    mixing_beta = 0.7
    conv_thr =  1.0d-8
 /
ATOMIC_SPECIES
 Si  28.086  Si.pbe-n-van.UPF
ATOMIC_POSITIONS (crystal)
 Si 0.00 0.00 0.00 
 Si 0.25 0.25 0.25 
K_POINTS (crystal)
 64
        0.0000000000         0.0000000000         0.0000000000 0.015625000000
        0.0000000000         0.0000000000         0.2500000000 0.015625000000
        0.0000000000         0.0000000000         0.5000000000 0.015625000000
        0.0000000000         0.0000000000         0.7500000000 0.015625000000
        0.0000000000         0.2500000000         0.0000000000 0.015625000000
        0.0000000000         0.2500000000         0.2500000000 0.015625000000
        0.0000000000         0.2500000000         0.5000000000 0.015625000000
        0.0000000000         0.2500000000         0.7500000000 0.015625000000
        0.0000000000         0.5000000000         0.0000000000 0.015625000000
        0.0000000000         0.5000000000         0.2500000000 0.015625000000
        0.0000000000         0.5000000000         0.5000000000 0.015625000000
        0.0000000000         0.5000000000         0.7500000000 0.015625000000
        0.0000000000         0.7500000000         0.0000000000 0.015625000000
        0.0000000000         0.7500000000         0.2500000000 0.015625000000
        0.0000000000         0.7500000000         0.5000000000 0.015625000000
        0.0000000000         0.7500000000         0.7500000000 0.015625000000
        0.2500000000         0.0000000000         0.0000000000 0.015625000000
        0.2500000000         0.0000000000         0.2500000000 0.015625000000
        0.2500000000         0.0000000000         0.5000000000 0.015625000000
        0.2500000000         0.0000000000         0.7500000000 0.015625000000
        0.2500000000         0.2500000000         0.0000000000 0.015625000000
        0.2500000000         0.2500000000         0.2500000000 0.015625000000
        0.2500000000         0.2500000000         0.5000000000 0.015625000000
        0.2500000000         0.2500000000         0.7500000000 0.015625000000
        0.2500000000         0.5000000000         0.0000000000 0.015625000000
        0.2500000000         0.5000000000         0.2500000000 0.015625000000
        0.2500000000         0.5000000000         0.5000000000 0.015625000000
        0.2500000000         0.5000000000         0.7500000000 0.015625000000
        0.2500000000         0.7500000000         0.0000000000 0.015625000000
        0.2500000000         0.7500000000         0.2500000000 0.015625000000
        0.2500000000         0.7500000000         0.5000000000 0.015625000000
        0.2500000000         0.7500000000         0.7500000000 0.015625000000
        0.5000000000         0.0000000000         0.0000000000 0.015625000000
        0.5000000000         0.0000000000         0.2500000000 0.015625000000
        0.5000000000         0.0000000000         0.5000000000 0.015625000000
        0.5000000000         0.0000000000         0.7500000000 0.015625000000
        0.5000000000         0.2500000000         0.0000000000 0.015625000000
        0.5000000000         0.2500000000         0.2500000000 0.015625000000
        0.5000000000         0.2500000000         0.5000000000 0.015625000000
        0.5000000000         0.2500000000         0.7500000000 0.015625000000
        0.5000000000         0.5000000000         0.0000000000 0.015625000000
        0.5000000000         0.5000000000         0.2500000000 0.015625000000
        0.5000000000         0.5000000000         0.5000000000 0.015625000000
        0.5000000000         0.5000000000         0.7500000000 0.015625000000
        0.5000000000         0.7500000000         0.0000000000 0.015625000000
        0.5000000000         0.7500000000         0.2500000000 0.015625000000
        0.5000000000         0.7500000000         0.5000000000 0.015625000000
        0.5000000000         0.7500000000         0.7500000000 0.015625000000
        0.7500000000         0.0000000000         0.0000000000 0.015625000000
        0.7500000000         0.0000000000         0.2500000000 0.015625000000
        0.7500000000         0.0000000000         0.5000000000 0.015625000000
        0.7500000000         0.0000000000         0.7500000000 0.015625000000
        0.7500000000         0.2500000000         0.0000000000 0.015625000000
        0.7500000000         0.2500000000         0.2500000000 0.015625000000
        0.7500000000         0.2500000000         0.5000000000 0.015625000000
        0.7500000000         0.2500000000         0.7500000000 0.015625000000
        0.7500000000         0.5000000000         0.0000000000 0.015625000000
        0.7500000000         0.5000000000         0.2500000000 0.015625000000
        0.7500000000         0.5000000000         0.5000000000 0.015625000000
        0.7500000000         0.5000000000         0.7500000000 0.015625000000
        0.7500000000         0.7500000000         0.0000000000 0.015625000000
        0.7500000000         0.7500000000         0.2500000000 0.015625000000
        0.7500000000         0.7500000000         0.5000000000 0.015625000000
        0.7500000000         0.7500000000         0.7500000000 0.015625000000
