
  &INPUTPP
     prefix='guanine_gamma'
     outdir='./SCRATCH'
  /

