
  &INPUTPP
     prefix='guanine'
     outdir='./SCRATCH'
  /

