
 &INPUT
   prefix = 'guanine'
   postfix = '_WanT'
   work_dir = './SCRATCH'
   output_fmt = 'plt'
   datatype = 'modulus'
   collect_wf = .FALSE.
   wann = '25-28'
 /
