
 &INPUT
   prefix = 'guanine'
   postfix = '_WanT'
   work_dir = './'
   output_fmt = 'plt'
   datatype = 'modulus'
   collect_wf = .FALSE.
   wann = '20-28'
 /
