
&INPUTPP
  prefix='guanine'
  pseudo_dir = './'
  psfile(1) = 'C.pbe-van_bm.UPF'
  psfile(2) = 'N.pbe-van_bm.UPF'
  psfile(3) = 'H.pbe-van_bm.UPF'
  psfile(4) = 'O.pbe-van_bm.UPF'
  single_file = .FALSE.
  ascii = .FALSE.
/
