
&CONTROL
   prefix = 'guanine'
   postfix = '_WanT'
   work_dir = './SCRATCH/'
/

&SUBSPACE
   dimwann = 28
/

&LOCALIZATION
   maxiter0_wan = 100
   maxiter1_wan = 2000
   ncg = 5
/
WANNIER_CENTERS {angstrom}
1gauss   -5.449839    1.560923   -3.833842 0  0  0.5
1gauss   -4.940691    1.719651   -4.810815 0  0  0.5
1gauss   -6.008960    1.691510   -4.752944 0  0  0.5
1gauss   -4.698172    1.446945   -3.000215 0  0  0.5
1gauss   -5.755335    1.398114   -2.806702 0  0  0.5
1gauss   -3.727333    1.533329   -3.449690 0  0  0.5
1gauss   -2.693175    1.667956   -4.204463 0  0  0.5
1gauss   -3.859120    1.704056   -4.581030 0  0  0.5
1gauss   -1.488314    1.658355   -3.991485 0  0  0.5
1gauss   -1.898621    1.813387   -5.058892 0  0  0.5
1gauss   -2.304427    1.986394   -6.238257 0  0  0.5
1gauss   -1.318086    1.954267   -5.911103 0  0  0.5
1gauss   -2.600708    2.152609   -7.357222 0  0  0.5
1gauss   -3.449499    2.016660   -6.572456 0  0  0.5
1gauss   -2.764243    2.301762   -8.350262 0  0  0.5
1gauss   -1.910225    2.284382   -8.135219 0  0  0.5
1gauss   -4.209638    1.879753   -5.769658 0  0  0.5
1gauss   -5.560570365   1.662902187  -4.513102389   1  1  0.5
1gauss   -5.339108380   1.458943278  -3.154582481   1  1  0.5
1gauss   -4.057236013   1.434946524  -2.845846537   1  1  0.5
1gauss   -3.397429532   1.631712311  -4.053533062   1  1  0.5
1gauss   -1.988921110   1.704199177  -4.355393194   1  1  0.5
1gauss   -0.987707323   1.612510461  -3.627577745   1  1  0.5
1gauss   -1.808320505   1.922574792  -5.762391018   1  1  0.5
1gauss   -2.800532668   2.050213234  -6.714123110   1  1  0.5
1gauss   -2.400882367   2.255003774  -8.000320168   1  1  0.5
1gauss   -4.098465218   1.983106066  -6.430788289   1  1  0.5
1gauss   -4.320810940   1.776399834  -5.108527382   1  1  0.5

