
 &INPUT
   prefix        = 'hydrogen_H6'
   postfix       = '_cryHF'
   work_dir      = './SCRATCH'
   datafile_dft  = './CRYSTAL/hydrogen_H6_HF.xml'
   fileout       = 'dos_H6_cryHF.dat'
   nk(1)         = 400
   nk(2)         = 1
   nk(3)         = 1
   delta         = 0.05
   emin          = -10.0
   emax          =  15.0
   ne            = 2000
!   smearing_type = 'lorentzian'
 /
