
 &INPUT
   prefix = 'gold'
   postfix = '_WanT'
   work_dir = './SCRATCH'
   fileout = 'bands_Au.dat'
!   fileout = 'bands_Au_NN.dat'
!   use_nn(3) = .TRUE.
   nkpts_in  = 2
   nkpts_max = 100
 /
G   0.0 0.0 0.0
Z   0.0 0.0 0.5
