
 &INPUT
   prefix = 'gold'
   postfix = '_WanT'
   nk(1) = 1
   nk(2) = 1
   nk(3) = 400
   delta = 0.05
   smearing_type = 'gaussian'
 /
