
 &INPUT
   prefix = 'gold_US'
   postfix = '_WanT'
   fileout = 'dos_AuUS.dat'
   nk(1) = 1
   nk(2) = 1
   nk(3) = 400
   delta = 0.05
   smearing_type = 'gaussian'
 /
