
 &INPUT
   prefix = 'gold1'
   postfix = '_WanT'
   work_dir = './'
   nspts  = 2
   npts   = 100
   nbands = 6
   efermi = -5.0679    ! from PWSCF scf.out 25 Ry
 /
G
0.0 0.0 0.0
Z
0.0 0.0 0.5
