Infinite Gold Chain
4 atom/cell, Lattice Parameter = 2.5 Ang
   &CONTROL
      calculation = 'nscf',
      restart_mode='from_scratch',
      verbosity='default',
      prefix='gold4',
      nstep=100,
      tstress = .false.,
      tprnfor = .true.,
      pseudo_dir = '../',
   /
   &SYSTEM
      ibrav=8, 
      celldm(1)=20.0, 
      celldm(2)=1.0,
      celldm(3)=0.944864,
      nat=4, 
      ntyp=1,
      ecutwfc=25.0,
      ecutrho=100.0,
      occupations='smearing',
      smearing='gaussian',
      degauss=0.01,
      nbnd=30
   /
   &ELECTRONS
      electron_maxstep = 100,
      mixing_mode = 'plain',
      mixing_beta = 0.3,
      conv_thr =  1.0d-8,
   /
ATOMIC_SPECIES
  Au   196.9665   Au11pw91.mt.UPF
ATOMIC_POSITIONS {angstrom}
Au        0.00000     0.00000    0.00000
Au        0.00000     0.00000    2.50000
Au        0.00000     0.00000    5.00000
Au        0.00000     0.00000    7.50000
K_POINTS {crystal}
  4
0.0000  0.0000   0.0000   0.500
0.0000  0.0000   0.2500   0.500
0.0000  0.0000   0.5000   0.500
0.0000  0.0000   0.7500   0.500

