
 &INPUT
   prefix = 'gold'
   postfix = '_WanT'
   work_dir = './'
   datatype = 'modulus'
   output_fmt = 'plt'
   wann = '1-2,6'
   r3min =  -1.0
   r3max =   1.0
 /
