&inputpp
  prefix='gold'
  outdir='./SCRATCH'
/
