&projwfc
  prefix='gold_US'
  outdir='./SCRATCH'
  filpdos='./SCRATCH/gold_US'
/
