
&CONTROL
   prefix = 'cobalt_US'
   postfix = '_WanT'
   work_dir = './'
   verbosity = 'high'
/

&SUBSPACE
   dimwann = 6   
   win_max =  0.0
!   start_mode_dis = 'randomized'
/

&LOCALIZATION
!   start_mode_wan = 'randomized'
   maxiter0_wan = 100
   maxiter1_wan = 1500
   ncg = 5    
   nshells = 2  
   nwhich(1) = 1  
   nwhich(2) = 3  
   ordering_mode = 'complete'
/

WANNIER_CENTERS {angstrom}
1gauss   0.000000    0.000000     0.500000  0  0  3  0.5
1gauss   0.000000    0.000000     0.500000  2 -2  3  0.5
1gauss   0.000000    0.000000     0.500000  2 -1  3  0.5
1gauss   0.000000    0.000000     0.500000  2  0  3  0.5
1gauss   0.000000    0.000000     0.500000  2  1  3  0.5
1gauss   0.000000    0.000000     0.500000  2  2  3  0.5

