
&CONTROL
   prefix = 'gold_US'
   postfix = '_WanT'
   work_dir = './'
/

&SUBSPACE
   dimwann = 6   
   win_min = -12.0
   win_max =  0.0
   start_mode_dis = 'center_projections'
/

&LOCALIZATION
   maxiter0_wan = 100
   maxiter1_wan = 1500
   ncg = 5    
   nshells = 2  
   nwhich(1) = 1  
   nwhich(2) = 2  
/

WANNIER_CENTERS {angstrom}
1gauss   0.000000    0.000000     0.500000  0  0  3  0.5
1gauss   0.000000    0.000000     0.500000  2 -2  3  0.5
1gauss   0.000000    0.000000     0.500000  2 -1  3  0.5
1gauss   0.000000    0.000000     0.500000  2  0  3  0.5
1gauss   0.000000    0.000000     0.500000  2  1  3  0.5
1gauss   0.000000    0.000000     0.500000  2  2  3  0.5

