
&INPUT
   prefix    = 'al1'
   postfix   = '_WanT'
   work_dir  = './SCRATCH/'
   fileout   = './bands_Al.dat'
   datafile_sgm = './SCRATCH/sigma_Al.wan.dat'
   nkpts_in  = 2
   nkpts_max = 100
/
G   0.0 0.0 0.0
Z   0.0 0.0 0.5
