
 &CONTROL
    calculation='nscf',
    restart_mode='from_scratch',
    pseudo_dir = '../pseudo/'
    outdir='./SCRATCH/'
    prefix='alh'
    wf_collect = .TRUE.
 /

 &SYSTEM
    ibrav = 6,
    celldm(1) =12.0,
    celldm(3) =3.750,
    nat= 11,
    ntyp= 2,
    ecutwfc = 25.0,
    ecutrho = 150.0
    occupations='smearing',
    smearing='methfessel-paxton',
    degauss=0.01
    nbnd = 80
 /

 &ELECTRONS
    conv_thr = 1.0e-8
 /
ATOMIC_SPECIES
 Al 26.98 Al.pz-vbc.UPF
 H  1.0   H.pz-vbc.UPF
ATOMIC_POSITIONS
Al     0.00000000     0.00000000    -0.75000000
Al     0.00000000     0.00000000    -0.37500000
Al     0.00000000     0.00000000     0.00000000
Al     0.00000000     0.00000000     0.37500000
Al    -0.02779870     0.00000000     0.75537515
H      0.19269012     0.00000000     0.93750000
Al    -0.02779870     0.00000000     1.11962485
Al     0.00000000     0.00000000     1.50000000
Al     0.00000000     0.00000000     1.87500000
Al     0.00000000     0.00000000     2.25000000
Al     0.00000000     0.00000000     2.62500000
K_POINTS (crystal)
 4
 0.0000   0.0000   0.0000  1.0
 0.0000   0.0000   0.2500  1.0
 0.0000   0.0000   0.5000  1.0
 0.0000   0.0000   0.7500  1.0

