&inputpp
  prefix='al1'
  outdir='./SCRATCH/'
  pseudo_dir = '../pseudo/'
  psfile(1) = 'Al.pz-vbc.UPF'
/
