
 &INPUT
   prefix = 'wurtzite_US'
   postfix = '_WanT'
   work_dir = './SCRATCH/'
   output_fmt = 'xsf'
   datatype = 'modulus'
   collect_wf = .TRUE.
   wann = '1'
   r1min = -1.0
   r1max =  1.0
   r2min = -1.0
   r2max =  1.0
 /

