phonons
 &inputph
  tr2_ph=1.0d-12,
  prefix='cnhn',
  ldisp=.true.,
  nq1=6, nq2=1, nq3=1
  amass(1)=12.011,
  amass(2)=1.00794,
  outdir="./",
  fildyn='cnhn.dyn'
 /
