
&INPUT
   prefix = 'al'
   postfix = '_WanT'
   work_dir = './'
   nkpts_in  = 2
   nkpts_max = 100
   nk(1) = 1
   nk(2) = 1 
   nk(3) = 20
/
G
0.0 0.0 0.0
Z
0.0 0.0 0.5
