
&CONTROL
   prefix = 'al'
   postfix = '_WanT'
   restart_mode = 'restart'
   work_dir = './'
/

&SUBSPACE
   dimwann = 4     
   win_min = -20.0
   win_max = 10.0  
   maxiter_dis = 50     
   alpha_dis = 0.5      
   start_mode_dis = 'center_projections'
/

&LOCALIZATION
   maxiter0_wan = 200, 
   alpha0_wan = 0.5
   maxiter1_wan = 1500, 
   alpha1_wan = 0.5
   ncg = 5      
   nshells = 2   
   nwhich(1) = 1  
   nwhich(2) = 6  
/

WANNIER_CENTERS {crystal}
1gauss    0.000000    0.000000    0.000000  0  0  3  0.6
1gauss    0.000000    0.000000    0.000000  1  0  3  0.6
1gauss    0.000000    0.000000    0.000000  1 -1  3  0.6
1gauss    0.000000    0.000000    0.000000  1 +1  3  0.6

