
&CONTROL
   prefix = 'benzene_abi-o_DS2'
   postfix = '_WanT'
   work_dir = './SCRATCH/'
   verbosity = 'high'
/

&SUBSPACE
!   win_max  =  1.80
   froz_max = -1.8
   dimwann  = 18
   maxiter_dis = 5000
/

&LOCALIZATION
   a_condmin = 20.0
   maxiter0_wan = 200
   maxiter1_wan = 8000
   ncg = 5    
/

WANNIER_CENTERS {bohr}
1gauss    -5.332809448    2.481211424    3.123718739     0 0  1.0    1.0
1gauss    -3.497884274    5.655007362    3.116159439     0 0  1.0    1.0
1gauss    -1.664849401    4.770615578    3.097262383     0 0  1.0    1.0
1gauss    -3.650007248    3.626385689    3.111435413     0 0  1.0    1.0
1gauss     0.168185651    5.653118134    3.084034204     0 0  1.0    1.0
1gauss     0.318418950    3.623551369    3.075530529     0 0  1.0    1.0
1gauss     1.999330997    2.477432013    3.055688381     0 0  1.0    1.0
1gauss     0.317474097    1.332257509    3.067971706     0 0  1.0    1.0
1gauss     0.165351093   -0.696364343    3.062302589     0 0  1.0    1.0
1gauss    -1.666739106    0.188027859    3.082144737     0 0  1.0    1.0
1gauss    -3.500719070   -0.694474578    3.095372677     0 0  1.0    1.0
1gauss    -3.650952339    1.335092068    3.103876591     0 0  1.0    1.0
1gauss      -2.987658194       4.771560366       3.108600714   1 0  1.0  1.0
1gauss      -0.342040565       4.769670640       3.085923991   1 0  1.0  1.0
1gauss       0.978878523       2.477431937       3.065136996   1 0  1.0  1.0
1gauss      -0.343930292       0.187082961       3.070806176   1 0  1.0  1.0
1gauss      -2.989547921       0.188972688       3.093482899   1 0  1.0  1.0
1gauss      -4.312356735       2.481211391       3.114269895   1 0  1.0  1.0

