
 &INPUT
   prefix = 'pt4'
   postfix = '_WanT'
   work_dir = './SCRATCH'
   fileout = 'dos_bulk4.dat'
   nk(1) = 1
   nk(2) = 1
   nk(3) = 100
   delta = 0.05
   smearing_type = 'gaussian'
 /

