
 &INPUT
   prefix = 'pt_h2_pt'
   postfix = '_WanT'
   work_dir = './SCRATCH/'
   datatype = 'modulus'
   datafile_eigchn = './SCRATCH/eigchn_auto.dat'
   output_fmt = 'plt'
   eigchn = '1-4'
   r1min = -0.25
   r1max =  0.25
   r2min = -0.25
   r2max =  0.25
   r3min =  0.0
   r3max =  1.0
 /
