
&INPUTPP
  prefix='pt1'
  outdir='./SCRATCH/'
  pseudo_dir = '../pseudo/'
  psfile(1) = 'Pt.pz-rrkjus.UPF'
/

