
&CONTROL
   prefix = 'pt_h2_pt'
   postfix = '_WanT'
   work_dir = './SCRATCH/'
   verbosity = 'high'
   wantdata_fmt = 'binary'
/

&SUBSPACE
   dimwann = 50     
   win_max = 10.0  
   maxiter_dis = 2000
/

&LOCALIZATION
   a_condmin = 20.0
   maxiter0_wan = 100, 
   alpha0_wan = 0.5
   maxiter1_wan = 3000, 
   alpha1_wan = 0.5
   ncg = 5      
/

WANNIER_CENTERS {angstrom}
atomic 1  2  -2   1.0
atomic 1  2  -1   1.0
atomic 1  2   0   1.0
atomic 1  2   1   1.0
atomic 1  2   2   1.0
1gauss    0.000000    0.000000    1.210000  0  0   0.6   1.0
atomic 2  2  -2   1.0
atomic 2  2  -1   1.0
atomic 2  2   0   1.0
atomic 2  2   1   1.0
atomic 2  2   2   1.0
1gauss    0.000000    0.000000    3.620000  0  0   0.6   1.0
atomic 3  2  -2   1.0
atomic 3  2  -1   1.0
atomic 3  2   0   1.0
atomic 3  2   1   1.0
atomic 3  2   2   1.0
1gauss    0.000000    0.000000    6.030000  0  0   0.6   1.0
atomic 4  2  -2   1.0
atomic 4  2  -1   1.0
atomic 4  2   0   1.0
atomic 4  2   1   1.0
atomic 4  2   2   1.0
1gauss    0.000000    0.000000    8.065000  0  0   0.6   1.0
1gauss    0.000000    0.000000    9.340000  0  0   0.6   1.0
1gauss    0.000000    0.000000   10.620000  0  0   0.6   1.0
atomic 7  2  -2   1.0
atomic 7  2  -1   1.0
atomic 7  2   0   1.0
atomic 7  2   1   1.0
atomic 7  2   2   1.0
1gauss    0.000000    0.000000   12.660000  0  0   0.6   1.0
atomic 8  2  -2   1.0
atomic 8  2  -1   1.0
atomic 8  2   0   1.0
atomic 8  2   1   1.0
atomic 8  2   2   1.0
1gauss    0.000000    0.000000   15.065000  0  0   0.6   1.0
atomic 9  2  -2   1.0
atomic 9  2  -1   1.0
atomic 9  2   0   1.0
atomic 9  2   1   1.0
atomic 9  2   2   1.0
1gauss    0.000000    0.000000   17.475000  0  0   0.6   1.0
atomic 10  2  -2   1.0
atomic 10  2  -1   1.0
atomic 10  2   0   1.0
atomic 10  2   1   1.0
atomic 10  2   2   1.0
1gauss    0.000000    0.000000   19.885000  0  0   0.6   1.0
   
