
&CONTROL
   prefix = 'pt1'
   postfix = '_WanT'
   work_dir = './SCRATCH/'
   restart_mode = 'from_scratch'
/

&SUBSPACE
   dimwann  = 6    
   win_max  =  2.0        
   froz_max =  -4.5    ! Fermi = -4.95 eV
/   

&LOCALIZATION
   maxiter0_wan = 100
   maxiter1_wan = 1500
   ncg = 5       
/

WANNIER_CENTERS {crystal}
atomic   1  2 -2  
atomic   1  2 -1  
atomic   1  2  0  
atomic   1  2  1  
atomic   1  2  2  
1gauss   0.0  0.0  0.5     0  0  0.5

