Pt H2 Pt

   &CONTROL
      calculation = 'nscf',
      restart_mode='from_scratch',
      prefix='pt_h2_pt',
      nstep=50,
      tstress = .FALSE.,
      tprnfor = .TRUE.,
      pseudo_dir = './',
      etot_conv_thr=1.0e-4,
      forc_conv_thr=1.0e-3,
   /
   &SYSTEM
      ibrav=8, 
      celldm(1)=18.0,
      celldm(2)=1.0,
      celldm(3)=2.21412992,    ! 21.09 Ang = 39.8543 Bohr 
      nat=10, 
      ntyp=2,
      ecutwfc=22.0,
      ecutrho=176.0,
      occupations='smearing',
      smearing='gaussian',
      degauss=0.01,
      nbnd = 60
   /
   &ELECTRONS
      electron_maxstep = 50,
      mixing_mode = 'plain',
      mixing_beta = 0.3,
      conv_thr =  1.0d-8,
   /
ATOMIC_SPECIES
  Pt  195.08    Pt.pz-rrkjus.UPF
  H     1.008    H.pz-rrkjus.UPF
ATOMIC_POSITIONS {angstrom}
Pt    0.000    0.000   0.000
Pt    0.000    0.000   2.410
Pt    0.000    0.000   4.820
Pt    0.000    0.000   7.230
H     0.000    0.000   8.900
H     0.000    0.000   9.780
Pt    0.000    0.000  11.450
Pt    0.000    0.000  13.860
Pt    0.000    0.000  16.270
Pt    0.000    0.000  18.680
K_POINTS {crystal}
4
0.0000   0.0000   0.0000   1.0
0.0000   0.0000   0.2500   1.0
0.0000   0.0000   0.5000   1.0
0.0000   0.0000   0.7500   1.0

