
 &INPUT
   prefix = 'pt_h2_pt'
   postfix = '_WanT'
   work_dir = './'
   datatype = 'modulus'
   output_fmt = 'plt'
   wann = '1-6,24-27'
   r3min = 0.0
   r3max = 1.0
   
 /
