&inputpp
  prefix='pt_h2_pt'
  outdir='./'
  ascii = .FALSE.
  pseudo_dir = './'
  psfile(1) = 'Pt.pz-rrkjus.UPF'
  psfile(2) = 'H.pz-rrkjus.UPF'
  single_file = .FALSE.
  ascii = .FALSE.
/

