&inputpp
  prefix='silicon'
  outdir='./'
  pseudo_dir='./'
  psfile(1)='Si.pbe-n-van.UPF'
  single_file= .FALSE.
  ascii = .FALSE.
/
