
 &INPUT
   prefix    = 'pt1'
   postfix   = '_WanT'
   work_dir  = './SCRATCH'
   fileout   = 'bands_bulk1.dat'
   nkpts_in  = 2
   nkpts_max = 100
 /
G   0.0 0.0 0.0
Z   0.0 0.0 0.5
