Pt 1 atom

   &CONTROL
      calculation = 'nscf',
      restart_mode='from_scratch',
      prefix='pt1',
      nstep=50,
      tstress = .FALSE.,
      tprnfor = .TRUE.,
      pseudo_dir = '../pseudo/',
      outdir = './SCRATCH'
      wf_collect = .TRUE.
   /
   &SYSTEM
      ibrav=8, 
      celldm(1)=18.0,
      celldm(2)=1.0,
      celldm(3)=.2530134320,    ! 2.410 Ang = 4.5542417754 Bohr
      nat=1, 
      ntyp=1,
      ecutwfc=22.0,
      ecutrho=176.0,
      occupations='smearing',
      smearing='gaussian',
      degauss=0.01,
   /
   &ELECTRONS
      electron_maxstep = 50,
      mixing_mode = 'plain',
      mixing_beta = 0.3,
      conv_thr =  1.0d-8,
   /
ATOMIC_SPECIES
  Pt  195.08    Pt.pz-rrkjus.UPF
ATOMIC_POSITIONS {angstrom}
Pt    0.000    0.000   0.000
K_POINTS {crystal}
    16
    0.000000000    0.000000000   -0.500000000       0.12500000
    0.000000000    0.000000000   -0.437500000       0.12500000
    0.000000000    0.000000000   -0.375000000       0.12500000
    0.000000000    0.000000000   -0.312500000       0.12500000
    0.000000000    0.000000000   -0.250000000       0.12500000
    0.000000000    0.000000000   -0.187500000       0.12500000
    0.000000000    0.000000000   -0.125000000       0.12500000
    0.000000000    0.000000000   -0.062500000       0.12500000
    0.000000000    0.000000000    0.000000000       0.12500000
    0.000000000    0.000000000    0.062500000       0.12500000
    0.000000000    0.000000000    0.125000000       0.12500000
    0.000000000    0.000000000    0.187500000       0.12500000
    0.000000000    0.000000000    0.250000000       0.12500000
    0.000000000    0.000000000    0.312500000       0.12500000
    0.000000000    0.000000000    0.375000000       0.12500000
    0.000000000    0.000000000    0.437500000       0.12500000
