Pt 4 atoms

   &CONTROL
      calculation = 'scf',
      restart_mode='from_scratch',
      prefix='pt4',
      nstep=50,
      tstress = .FALSE.,
      tprnfor = .TRUE.,
      pseudo_dir = '../pseudo/',
      outdir = './SCRATCH'
   /
   &SYSTEM
      ibrav=8, 
      celldm(1)=18.0,
      celldm(2)=1.0,
      celldm(3)=1.0120537280,    ! 4* 2.410 Ang =  4* 4.5542417754 Bohr
      nat=4, 
      ntyp=1,
      ecutwfc=22.0,
      ecutrho=176.0,
      occupations='smearing',
      smearing='gaussian',
      degauss=0.01,
      nbnd = 30
   /
   &ELECTRONS
      electron_maxstep = 50,
      mixing_mode = 'plain',
      mixing_beta = 0.3,
      conv_thr =  1.0d-8,
   /
ATOMIC_SPECIES
  Pt  195.08    Pt.pz-rrkjus.UPF
ATOMIC_POSITIONS {crystal}
Pt    0.000    0.000   0.000
Pt    0.000    0.000   0.250
Pt    0.000    0.000   0.500
Pt    0.000    0.000   0.750
K_POINTS {automatic}
   1 1 4    0  0  1

