
 &INPUT
   prefix = 'chain4'
   postfix = '_WanT'
   work_dir = './LEADS/'
   nkpts_in  = 2
   nkpts_max = 100
   nk(1) = 8
   nk(2) = 1
   nk(3) = 1
 /
G
0.0 0.0 0.0
X
0.5 0.0 0.0
