
&CONTROL
   prefix = 'chain4'
   postfix = '_WanT'
   work_dir = './LEADS/'
/

&SUBSPACE
   dimwann = 16
   alpha_dis = 0.5                   
   maxiter_dis = 200
   start_mode_dis = 'center_projections' 
/

&LOCALIZATION
   maxiter0_wan = 200 
   maxiter1_wan = 2000 
   nshells = 2   
   nwhich(1) = 1 
   nwhich(2) = 4 
   ordering_mode = 'none'
/

WANNIER_CENTERS {crystal}
atomic    1   0  0
atomic    1   1 -1
atomic    1   1  0
atomic    1   1  1
atomic    2   0  0
atomic    2   1 -1
atomic    2   1  0
atomic    2   1  1
atomic    3   0  0
atomic    3   1 -1
atomic    3   1  0
atomic    3   1  1
atomic    4   0  0
atomic    4   1 -1
atomic    4   1  0
atomic    4   1  1

1gauss    0.1113138  0.0000000  0.0000000     0  0  3    0.8
1gauss    0.1113138  0.0000000  0.0000000     1  0  3    0.8
1gauss    0.1113138  0.0000000  0.0000000     1  1  3    0.8
1gauss    0.3613138  0.0000000  0.0000000     0  0  3    0.8
1gauss    0.6113138  0.0000000  0.0000000     0  0  3    0.8
1gauss    0.6113138  0.0000000  0.0000000     1  0  3    0.8
1gauss    0.6113138  0.0000000  0.0000000     1  1  3    0.8
1gauss    0.8613138  0.0000000  0.0000000     0  0  3    0.8

