Infinite Gold Chain
4 atom/cell, Lattice Parameter = 2.5 Ang
   &CONTROL
      calculation = 'nscf',
      restart_mode='from_scratch',
      verbosity='default',
      prefix='gold2',
      nstep=100,
      tstress = .false.,
      tprnfor = .true.,
      pseudo_dir = '../',
   /
   &SYSTEM
      ibrav=8, 
      celldm(1)=20.0, 
      celldm(2)=1.0,
      celldm(3)=0.5480208,
      nat=2, 
      ntyp=1,
      ecutwfc=25.0,
      ecutrho=100.0,
      occupations='smearing',
      smearing='gaussian',
      degauss=0.01,
   /
   &ELECTRONS
      electron_maxstep = 100,
      mixing_mode = 'plain',
      mixing_beta = 0.3,
      conv_thr =  1.0d-8,
   /
ATOMIC_SPECIES
  Au   196.9665   Au11pw91.mt.UPF
ATOMIC_POSITIONS {crystal}
Au        0.00000     0.00000    0.00000
Au        0.00000     0.00000    0.50000
K_POINTS {crystal}
  8
0.0000  0.0000   0.0000   0.250
0.0000  0.0000   0.1250   0.250
0.0000  0.0000   0.2500   0.250
0.0000  0.0000   0.3750   0.250
0.0000  0.0000   0.5000   0.250
0.0000  0.0000   0.6250   0.250
0.0000  0.0000   0.7500   0.250
0.0000  0.0000   0.8750   0.250

