
 &INPUT
   prefix = 'gold_US'
   postfix = '_WanT'
   work_dir = './'
   datatype = 'modulus'
   wann = '1-3,6'
!   nrzl = -48
!   nrzh =  48
 /
