
&inputpp
  prefix='chain8'
  nk(1)=4,
  nk(2)=1,
  nk(3)=1,
  s0(1)=0.0,
  s0(2)=0.0,
  s0(3)=0.0,
  spin_component = 'none'
/

