&inputpp
  prefix='gold1'
  outdir='./'
  ascii = .FALSE.
  pseudo_dir = './'
  psfile(1) = 'Au11pw91.mt.UPF'
  single_file = .FALSE.
  ascii = .FALSE.
/
