
&CONTROL
   prefix = 'gold'
   postfix = '_WanT'
   work_dir = './'
   restart_mode = 'from_scratch'
   verbosity = 'high'
/

&SUBSPACE
   dimwann = 6    
   win_max =  2.0        
   froz_max =  -2.0
   maxiter_dis = 100
/   

&LOCALIZATION
   maxiter0_wan = 100
   maxiter1_wan = 1500
   ncg = 5       
   nshells = 2   
   nwhich(1) = 1 
   nwhich(2) = 2 
!   ordering_mode = 'complete'
/

WANNIER_CENTERS {angstrom}
atomic   1  0  0  
atomic   1  2 -2  
atomic   1  2 -1  
atomic   1  2  0  
atomic   1  2  1  
atomic   1  2  2  

