 &control
    calculation='nscf'
    prefix='silicon'
    pseudo_dir = '../pseudo/',
    outdir = './SCRATCH/'
 /
 &system    
    ibrav=  2, celldm(1) =10.599478, nat=  2, ntyp= 1,
    ecutwfc =30.0,  nbnd = 16
 /
 &electrons
    mixing_mode = 'plain'
    mixing_beta = 0.7
    conv_thr =  1.0d-8
 /
ATOMIC_SPECIES
 Si  28.086  Si.vbc.UPF
ATOMIC_POSITIONS (crystal)
 Si 0.00 0.00 0.00 
 Si 0.25 0.25 0.25 
K_POINTS (crystal)
494
    0.00000  0.50000  0.00000  1.0
    0.00000  0.49550  0.00000  1.0
    0.00000  0.49099  0.00000  1.0
    0.00000  0.48649  0.00000  1.0
    0.00000  0.48198  0.00000  1.0
    0.00000  0.47748  0.00000  1.0
    0.00000  0.47297  0.00000  1.0
    0.00000  0.46847  0.00000  1.0
    0.00000  0.46396  0.00000  1.0
    0.00000  0.45946  0.00000  1.0
    0.00000  0.45495  0.00000  1.0
    0.00000  0.45045  0.00000  1.0
    0.00000  0.44595  0.00000  1.0
    0.00000  0.44144  0.00000  1.0
    0.00000  0.43694  0.00000  1.0
    0.00000  0.43243  0.00000  1.0
    0.00000  0.42793  0.00000  1.0
    0.00000  0.42342  0.00000  1.0
    0.00000  0.41892  0.00000  1.0
    0.00000  0.41441  0.00000  1.0
    0.00000  0.40991  0.00000  1.0
    0.00000  0.40541  0.00000  1.0
    0.00000  0.40090  0.00000  1.0
    0.00000  0.39640  0.00000  1.0
    0.00000  0.39189  0.00000  1.0
    0.00000  0.38739  0.00000  1.0
    0.00000  0.38288  0.00000  1.0
    0.00000  0.37838  0.00000  1.0
    0.00000  0.37387  0.00000  1.0
    0.00000  0.36937  0.00000  1.0
    0.00000  0.36486  0.00000  1.0
    0.00000  0.36036  0.00000  1.0
    0.00000  0.35586  0.00000  1.0
    0.00000  0.35135  0.00000  1.0
    0.00000  0.34685  0.00000  1.0
    0.00000  0.34234  0.00000  1.0
    0.00000  0.33784  0.00000  1.0
    0.00000  0.33333  0.00000  1.0
    0.00000  0.32883  0.00000  1.0
    0.00000  0.32432  0.00000  1.0
    0.00000  0.31982  0.00000  1.0
    0.00000  0.31532  0.00000  1.0
    0.00000  0.31081  0.00000  1.0
    0.00000  0.30631  0.00000  1.0
    0.00000  0.30180  0.00000  1.0
    0.00000  0.29730  0.00000  1.0
    0.00000  0.29279  0.00000  1.0
    0.00000  0.28829  0.00000  1.0
    0.00000  0.28378  0.00000  1.0
    0.00000  0.27928  0.00000  1.0
    0.00000  0.27477  0.00000  1.0
    0.00000  0.27027  0.00000  1.0
    0.00000  0.26577  0.00000  1.0
    0.00000  0.26126  0.00000  1.0
    0.00000  0.25676  0.00000  1.0
    0.00000  0.25225  0.00000  1.0
    0.00000  0.24775  0.00000  1.0
    0.00000  0.24324  0.00000  1.0
    0.00000  0.23874  0.00000  1.0
    0.00000  0.23423  0.00000  1.0
    0.00000  0.22973  0.00000  1.0
    0.00000  0.22523  0.00000  1.0
    0.00000  0.22072  0.00000  1.0
    0.00000  0.21622  0.00000  1.0
    0.00000  0.21171  0.00000  1.0
    0.00000  0.20721  0.00000  1.0
    0.00000  0.20270  0.00000  1.0
    0.00000  0.19820  0.00000  1.0
    0.00000  0.19369  0.00000  1.0
    0.00000  0.18919  0.00000  1.0
    0.00000  0.18468  0.00000  1.0
    0.00000  0.18018  0.00000  1.0
    0.00000  0.17568  0.00000  1.0
    0.00000  0.17117  0.00000  1.0
    0.00000  0.16667  0.00000  1.0
    0.00000  0.16216  0.00000  1.0
    0.00000  0.15766  0.00000  1.0
    0.00000  0.15315  0.00000  1.0
    0.00000  0.14865  0.00000  1.0
    0.00000  0.14414  0.00000  1.0
    0.00000  0.13964  0.00000  1.0
    0.00000  0.13514  0.00000  1.0
    0.00000  0.13063  0.00000  1.0
    0.00000  0.12613  0.00000  1.0
    0.00000  0.12162  0.00000  1.0
    0.00000  0.11712  0.00000  1.0
    0.00000  0.11261  0.00000  1.0
    0.00000  0.10811  0.00000  1.0
    0.00000  0.10360  0.00000  1.0
    0.00000  0.09910  0.00000  1.0
    0.00000  0.09459  0.00000  1.0
    0.00000  0.09009  0.00000  1.0
    0.00000  0.08559  0.00000  1.0
    0.00000  0.08108  0.00000  1.0
    0.00000  0.07658  0.00000  1.0
    0.00000  0.07207  0.00000  1.0
    0.00000  0.06757  0.00000  1.0
    0.00000  0.06306  0.00000  1.0
    0.00000  0.05856  0.00000  1.0
    0.00000  0.05405  0.00000  1.0
    0.00000  0.04955  0.00000  1.0
    0.00000  0.04505  0.00000  1.0
    0.00000  0.04054  0.00000  1.0
    0.00000  0.03604  0.00000  1.0
    0.00000  0.03153  0.00000  1.0
    0.00000  0.02703  0.00000  1.0
    0.00000  0.02252  0.00000  1.0
    0.00000  0.01802  0.00000  1.0
    0.00000  0.01351  0.00000  1.0
    0.00000  0.00901  0.00000  1.0
    0.00000  0.00000  0.00000  1.0
    0.00391  0.00000  0.00391  1.0
    0.00781  0.00000  0.00781  1.0
    0.01172  0.00000  0.01172  1.0
    0.01562  0.00000  0.01562  1.0
    0.01953  0.00000  0.01953  1.0
    0.02344  0.00000  0.02344  1.0
    0.02734  0.00000  0.02734  1.0
    0.03125  0.00000  0.03125  1.0
    0.03516  0.00000  0.03516  1.0
    0.03906  0.00000  0.03906  1.0
    0.04297  0.00000  0.04297  1.0
    0.04688  0.00000  0.04688  1.0
    0.05078  0.00000  0.05078  1.0
    0.05469  0.00000  0.05469  1.0
    0.05859  0.00000  0.05859  1.0
    0.06250  0.00000  0.06250  1.0
    0.06641  0.00000  0.06641  1.0
    0.07031  0.00000  0.07031  1.0
    0.07422  0.00000  0.07422  1.0
    0.07812  0.00000  0.07812  1.0
    0.08203  0.00000  0.08203  1.0
    0.08594  0.00000  0.08594  1.0
    0.08984  0.00000  0.08984  1.0
    0.09375  0.00000  0.09375  1.0
    0.09766  0.00000  0.09766  1.0
    0.10156  0.00000  0.10156  1.0
    0.10547  0.00000  0.10547  1.0
    0.10938  0.00000  0.10938  1.0
    0.11328  0.00000  0.11328  1.0
    0.11719  0.00000  0.11719  1.0
    0.12109  0.00000  0.12109  1.0
    0.12500  0.00000  0.12500  1.0
    0.12891  0.00000  0.12891  1.0
    0.13281  0.00000  0.13281  1.0
    0.13672  0.00000  0.13672  1.0
    0.14062  0.00000  0.14062  1.0
    0.14453  0.00000  0.14453  1.0
    0.14844  0.00000  0.14844  1.0
    0.15234  0.00000  0.15234  1.0
    0.15625  0.00000  0.15625  1.0
    0.16016  0.00000  0.16016  1.0
    0.16406  0.00000  0.16406  1.0
    0.16797  0.00000  0.16797  1.0
    0.17188  0.00000  0.17188  1.0
    0.17578  0.00000  0.17578  1.0
    0.17969  0.00000  0.17969  1.0
    0.18359  0.00000  0.18359  1.0
    0.18750  0.00000  0.18750  1.0
    0.19141  0.00000  0.19141  1.0
    0.19531  0.00000  0.19531  1.0
    0.19922  0.00000  0.19922  1.0
    0.20312  0.00000  0.20312  1.0
    0.20703  0.00000  0.20703  1.0
    0.21094  0.00000  0.21094  1.0
    0.21484  0.00000  0.21484  1.0
    0.21875  0.00000  0.21875  1.0
    0.22266  0.00000  0.22266  1.0
    0.22656  0.00000  0.22656  1.0
    0.23047  0.00000  0.23047  1.0
    0.23438  0.00000  0.23438  1.0
    0.23828  0.00000  0.23828  1.0
    0.24219  0.00000  0.24219  1.0
    0.24609  0.00000  0.24609  1.0
    0.25000  0.00000  0.25000  1.0
    0.25391  0.00000  0.25391  1.0
    0.25781  0.00000  0.25781  1.0
    0.26172  0.00000  0.26172  1.0
    0.26562  0.00000  0.26562  1.0
    0.26953  0.00000  0.26953  1.0
    0.27344  0.00000  0.27344  1.0
    0.27734  0.00000  0.27734  1.0
    0.28125  0.00000  0.28125  1.0
    0.28516  0.00000  0.28516  1.0
    0.28906  0.00000  0.28906  1.0
    0.29297  0.00000  0.29297  1.0
    0.29688  0.00000  0.29688  1.0
    0.30078  0.00000  0.30078  1.0
    0.30469  0.00000  0.30469  1.0
    0.30859  0.00000  0.30859  1.0
    0.31250  0.00000  0.31250  1.0
    0.31641  0.00000  0.31641  1.0
    0.32031  0.00000  0.32031  1.0
    0.32422  0.00000  0.32422  1.0
    0.32812  0.00000  0.32812  1.0
    0.33203  0.00000  0.33203  1.0
    0.33594  0.00000  0.33594  1.0
    0.33984  0.00000  0.33984  1.0
    0.34375  0.00000  0.34375  1.0
    0.34766  0.00000  0.34766  1.0
    0.35156  0.00000  0.35156  1.0
    0.35547  0.00000  0.35547  1.0
    0.35938  0.00000  0.35938  1.0
    0.36328  0.00000  0.36328  1.0
    0.36719  0.00000  0.36719  1.0
    0.37109  0.00000  0.37109  1.0
    0.37500  0.00000  0.37500  1.0
    0.37891  0.00000  0.37891  1.0
    0.38281  0.00000  0.38281  1.0
    0.38672  0.00000  0.38672  1.0
    0.39062  0.00000  0.39062  1.0
    0.39453  0.00000  0.39453  1.0
    0.39844  0.00000  0.39844  1.0
    0.40234  0.00000  0.40234  1.0
    0.40625  0.00000  0.40625  1.0
    0.41016  0.00000  0.41016  1.0
    0.41406  0.00000  0.41406  1.0
    0.41797  0.00000  0.41797  1.0
    0.42188  0.00000  0.42188  1.0
    0.42578  0.00000  0.42578  1.0
    0.42969  0.00000  0.42969  1.0
    0.43359  0.00000  0.43359  1.0
    0.43750  0.00000  0.43750  1.0
    0.44141  0.00000  0.44141  1.0
    0.44531  0.00000  0.44531  1.0
    0.44922  0.00000  0.44922  1.0
    0.45312  0.00000  0.45312  1.0
    0.45703  0.00000  0.45703  1.0
    0.46094  0.00000  0.46094  1.0
    0.46484  0.00000  0.46484  1.0
    0.46875  0.00000  0.46875  1.0
    0.47266  0.00000  0.47266  1.0
    0.47656  0.00000  0.47656  1.0
    0.48047  0.00000  0.48047  1.0
    0.48438  0.00000  0.48438  1.0
    0.48828  0.00000  0.48828  1.0
    0.49219  0.00000  0.49219  1.0
    0.50000  0.00000  0.50000  1.0
    0.50278  0.00556  0.50278  1.0
    0.50556  0.01111  0.50556  1.0
    0.50833  0.01667  0.50833  1.0
    0.51111  0.02222  0.51111  1.0
    0.51389  0.02778  0.51389  1.0
    0.51667  0.03333  0.51667  1.0
    0.51944  0.03889  0.51944  1.0
    0.52222  0.04444  0.52222  1.0
    0.52500  0.05000  0.52500  1.0
    0.52778  0.05556  0.52778  1.0
    0.53056  0.06111  0.53056  1.0
    0.53333  0.06667  0.53333  1.0
    0.53611  0.07222  0.53611  1.0
    0.53889  0.07778  0.53889  1.0
    0.54167  0.08333  0.54167  1.0
    0.54444  0.08889  0.54444  1.0
    0.54722  0.09444  0.54722  1.0
    0.55000  0.10000  0.55000  1.0
    0.55278  0.10556  0.55278  1.0
    0.55556  0.11111  0.55556  1.0
    0.55833  0.11667  0.55833  1.0
    0.56111  0.12222  0.56111  1.0
    0.56389  0.12778  0.56389  1.0
    0.56667  0.13333  0.56667  1.0
    0.56944  0.13889  0.56944  1.0
    0.57222  0.14444  0.57222  1.0
    0.57500  0.15000  0.57500  1.0
    0.57778  0.15556  0.57778  1.0
    0.58056  0.16111  0.58056  1.0
    0.58333  0.16667  0.58333  1.0
    0.58611  0.17222  0.58611  1.0
    0.58889  0.17778  0.58889  1.0
    0.59167  0.18333  0.59167  1.0
    0.59444  0.18889  0.59444  1.0
    0.59722  0.19444  0.59722  1.0
    0.60000  0.20000  0.60000  1.0
    0.60278  0.20556  0.60278  1.0
    0.60556  0.21111  0.60556  1.0
    0.60833  0.21667  0.60833  1.0
    0.61111  0.22222  0.61111  1.0
    0.61389  0.22778  0.61389  1.0
    0.61667  0.23333  0.61667  1.0
    0.61944  0.23889  0.61944  1.0
    0.62500  0.25000  0.62500  1.0
    0.62179  0.25160  0.62660  1.0
    0.61859  0.25321  0.62821  1.0
    0.61538  0.25481  0.62981  1.0
    0.61218  0.25641  0.63141  1.0
    0.60897  0.25801  0.63301  1.0
    0.60577  0.25962  0.63462  1.0
    0.60256  0.26122  0.63622  1.0
    0.59936  0.26282  0.63782  1.0
    0.59615  0.26442  0.63942  1.0
    0.59295  0.26603  0.64103  1.0
    0.58974  0.26763  0.64263  1.0
    0.58654  0.26923  0.64423  1.0
    0.58333  0.27083  0.64583  1.0
    0.58013  0.27244  0.64744  1.0
    0.57692  0.27404  0.64904  1.0
    0.57372  0.27564  0.65064  1.0
    0.57051  0.27724  0.65224  1.0
    0.56731  0.27885  0.65385  1.0
    0.56410  0.28045  0.65545  1.0
    0.56090  0.28205  0.65705  1.0
    0.55769  0.28365  0.65865  1.0
    0.55449  0.28526  0.66026  1.0
    0.55128  0.28686  0.66186  1.0
    0.54808  0.28846  0.66346  1.0
    0.54487  0.29006  0.66506  1.0
    0.54167  0.29167  0.66667  1.0
    0.53846  0.29327  0.66827  1.0
    0.53526  0.29487  0.66987  1.0
    0.53205  0.29647  0.67147  1.0
    0.52885  0.29808  0.67308  1.0
    0.52564  0.29968  0.67468  1.0
    0.52244  0.30128  0.67628  1.0
    0.51923  0.30288  0.67788  1.0
    0.51603  0.30449  0.67949  1.0
    0.51282  0.30609  0.68109  1.0
    0.50962  0.30769  0.68269  1.0
    0.50641  0.30929  0.68429  1.0
    0.50321  0.31090  0.68590  1.0
    0.50000  0.31250  0.68750  1.0
    0.49679  0.31410  0.68910  1.0
    0.49359  0.31571  0.69071  1.0
    0.49038  0.31731  0.69231  1.0
    0.48718  0.31891  0.69391  1.0
    0.48397  0.32051  0.69551  1.0
    0.48077  0.32212  0.69712  1.0
    0.47756  0.32372  0.69872  1.0
    0.47436  0.32532  0.70032  1.0
    0.47115  0.32692  0.70192  1.0
    0.46795  0.32853  0.70353  1.0
    0.46474  0.33013  0.70513  1.0
    0.46154  0.33173  0.70673  1.0
    0.45833  0.33333  0.70833  1.0
    0.45513  0.33494  0.70994  1.0
    0.45192  0.33654  0.71154  1.0
    0.44872  0.33814  0.71314  1.0
    0.44551  0.33974  0.71474  1.0
    0.44231  0.34135  0.71635  1.0
    0.43910  0.34295  0.71795  1.0
    0.43590  0.34455  0.71955  1.0
    0.43269  0.34615  0.72115  1.0
    0.42949  0.34776  0.72276  1.0
    0.42628  0.34936  0.72436  1.0
    0.42308  0.35096  0.72596  1.0
    0.41987  0.35256  0.72756  1.0
    0.41667  0.35417  0.72917  1.0
    0.41346  0.35577  0.73077  1.0
    0.41026  0.35737  0.73237  1.0
    0.40705  0.35897  0.73397  1.0
    0.40385  0.36058  0.73558  1.0
    0.40064  0.36218  0.73718  1.0
    0.39744  0.36378  0.73878  1.0
    0.39423  0.36538  0.74038  1.0
    0.39103  0.36699  0.74199  1.0
    0.38782  0.36859  0.74359  1.0
    0.38462  0.37019  0.74519  1.0
    0.38141  0.37179  0.74679  1.0
    0.37500  0.37500  0.75000  1.0
    0.37224  0.37224  0.74449  1.0
    0.36949  0.36949  0.73897  1.0
    0.36673  0.36673  0.73346  1.0
    0.36397  0.36397  0.72794  1.0
    0.36121  0.36121  0.72243  1.0
    0.35846  0.35846  0.71691  1.0
    0.35570  0.35570  0.71140  1.0
    0.35294  0.35294  0.70588  1.0
    0.35018  0.35018  0.70037  1.0
    0.34743  0.34743  0.69485  1.0
    0.34467  0.34467  0.68934  1.0
    0.34191  0.34191  0.68382  1.0
    0.33915  0.33915  0.67831  1.0
    0.33640  0.33640  0.67279  1.0
    0.33364  0.33364  0.66728  1.0
    0.33088  0.33088  0.66176  1.0
    0.32812  0.32812  0.65625  1.0
    0.32537  0.32537  0.65074  1.0
    0.32261  0.32261  0.64522  1.0
    0.31985  0.31985  0.63971  1.0
    0.31710  0.31710  0.63419  1.0
    0.31434  0.31434  0.62868  1.0
    0.31158  0.31158  0.62316  1.0
    0.30882  0.30882  0.61765  1.0
    0.30607  0.30607  0.61213  1.0
    0.30331  0.30331  0.60662  1.0
    0.30055  0.30055  0.60110  1.0
    0.29779  0.29779  0.59559  1.0
    0.29504  0.29504  0.59007  1.0
    0.29228  0.29228  0.58456  1.0
    0.28952  0.28952  0.57904  1.0
    0.28676  0.28676  0.57353  1.0
    0.28401  0.28401  0.56801  1.0
    0.28125  0.28125  0.56250  1.0
    0.27849  0.27849  0.55699  1.0
    0.27574  0.27574  0.55147  1.0
    0.27298  0.27298  0.54596  1.0
    0.27022  0.27022  0.54044  1.0
    0.26746  0.26746  0.53493  1.0
    0.26471  0.26471  0.52941  1.0
    0.26195  0.26195  0.52390  1.0
    0.25919  0.25919  0.51838  1.0
    0.25643  0.25643  0.51287  1.0
    0.25368  0.25368  0.50735  1.0
    0.25092  0.25092  0.50184  1.0
    0.24816  0.24816  0.49632  1.0
    0.24540  0.24540  0.49081  1.0
    0.24265  0.24265  0.48529  1.0
    0.23989  0.23989  0.47978  1.0
    0.23713  0.23713  0.47426  1.0
    0.23438  0.23438  0.46875  1.0
    0.23162  0.23162  0.46324  1.0
    0.22886  0.22886  0.45772  1.0
    0.22610  0.22610  0.45221  1.0
    0.22335  0.22335  0.44669  1.0
    0.22059  0.22059  0.44118  1.0
    0.21783  0.21783  0.43566  1.0
    0.21507  0.21507  0.43015  1.0
    0.21232  0.21232  0.42463  1.0
    0.20956  0.20956  0.41912  1.0
    0.20680  0.20680  0.41360  1.0
    0.20404  0.20404  0.40809  1.0
    0.20129  0.20129  0.40257  1.0
    0.19853  0.19853  0.39706  1.0
    0.19577  0.19577  0.39154  1.0
    0.19301  0.19301  0.38603  1.0
    0.19026  0.19026  0.38051  1.0
    0.18750  0.18750  0.37500  1.0
    0.18474  0.18474  0.36949  1.0
    0.18199  0.18199  0.36397  1.0
    0.17923  0.17923  0.35846  1.0
    0.17647  0.17647  0.35294  1.0
    0.17371  0.17371  0.34743  1.0
    0.17096  0.17096  0.34191  1.0
    0.16820  0.16820  0.33640  1.0
    0.16544  0.16544  0.33088  1.0
    0.16268  0.16268  0.32537  1.0
    0.15993  0.15993  0.31985  1.0
    0.15717  0.15717  0.31434  1.0
    0.15441  0.15441  0.30882  1.0
    0.15165  0.15165  0.30331  1.0
    0.14890  0.14890  0.29779  1.0
    0.14614  0.14614  0.29228  1.0
    0.14338  0.14338  0.28676  1.0
    0.14062  0.14062  0.28125  1.0
    0.13787  0.13787  0.27574  1.0
    0.13511  0.13511  0.27022  1.0
    0.13235  0.13235  0.26471  1.0
    0.12960  0.12960  0.25919  1.0
    0.12684  0.12684  0.25368  1.0
    0.12408  0.12408  0.24816  1.0
    0.12132  0.12132  0.24265  1.0
    0.11857  0.11857  0.23713  1.0
    0.11581  0.11581  0.23162  1.0
    0.11305  0.11305  0.22610  1.0
    0.11029  0.11029  0.22059  1.0
    0.10754  0.10754  0.21507  1.0
    0.10478  0.10478  0.20956  1.0
    0.10202  0.10202  0.20404  1.0
    0.09926  0.09926  0.19853  1.0
    0.09651  0.09651  0.19301  1.0
    0.09375  0.09375  0.18750  1.0
    0.09099  0.09099  0.18199  1.0
    0.08824  0.08824  0.17647  1.0
    0.08548  0.08548  0.17096  1.0
    0.08272  0.08272  0.16544  1.0
    0.07996  0.07996  0.15993  1.0
    0.07721  0.07721  0.15441  1.0
    0.07445  0.07445  0.14890  1.0
    0.07169  0.07169  0.14338  1.0
    0.06893  0.06893  0.13787  1.0
    0.06618  0.06618  0.13235  1.0
    0.06342  0.06342  0.12684  1.0
    0.06066  0.06066  0.12132  1.0
    0.05790  0.05790  0.11581  1.0
    0.05515  0.05515  0.11029  1.0
    0.05239  0.05239  0.10478  1.0
    0.04963  0.04963  0.09926  1.0
    0.04688  0.04688  0.09375  1.0
    0.04412  0.04412  0.08824  1.0
    0.04136  0.04136  0.08272  1.0
    0.03860  0.03860  0.07721  1.0
    0.03585  0.03585  0.07169  1.0
    0.03309  0.03309  0.06618  1.0
    0.03033  0.03033  0.06066  1.0
    0.02757  0.02757  0.05515  1.0
    0.02482  0.02482  0.04963  1.0
    0.02206  0.02206  0.04412  1.0
    0.01930  0.01930  0.03860  1.0
    0.01654  0.01654  0.03309  1.0
    0.01379  0.01379  0.02757  1.0
    0.01103  0.01103  0.02206  1.0
    0.00827  0.00827  0.01654  1.0
    0.00551  0.00551  0.01103  1.0
    0.00000  0.00000  0.00000  1.0

