 &control
    calculation='nscf'
    prefix='silicon'
    pseudo_dir = '../pseudo/',
    outdir = './SCRATCH/'
 /
 &system    
    ibrav=  2, celldm(1) =10.599478, nat=  2, ntyp= 1,
    ecutwfc =30.0,  nbnd = 12
    nr1 = 32, nr2 = 32, nr3 = 32
 /
 &electrons
    mixing_mode = 'plain'
    mixing_beta = 0.7
    conv_thr =  1.0d-8
 /
ATOMIC_SPECIES
 Si  28.086  Si.vbc.UPF
ATOMIC_POSITIONS (alat)
 Si 0.00 0.00 0.00 
 Si 0.25 0.25 0.25 
K_POINTS (crystal)
492
   0.00000  0.00000  0.00000   1.0 
   0.00450  0.00450  0.00000   1.0 
   0.00901  0.00901  0.00000   1.0 
   0.01351  0.01351  0.00000   1.0 
   0.01802  0.01802  0.00000   1.0 
   0.02252  0.02252  0.00000   1.0 
   0.02703  0.02703  0.00000   1.0 
   0.03153  0.03153  0.00000   1.0 
   0.03604  0.03604  0.00000   1.0 
   0.04054  0.04054  0.00000   1.0 
   0.04505  0.04505  0.00000   1.0 
   0.04955  0.04955  0.00000   1.0 
   0.05405  0.05405  0.00000   1.0 
   0.05856  0.05856  0.00000   1.0 
   0.06306  0.06306  0.00000   1.0 
   0.06757  0.06757  0.00000   1.0 
   0.07207  0.07207  0.00000   1.0 
   0.07658  0.07658  0.00000   1.0 
   0.08108  0.08108  0.00000   1.0 
   0.08559  0.08559  0.00000   1.0 
   0.09009  0.09009  0.00000   1.0 
   0.09459  0.09459  0.00000   1.0 
   0.09910  0.09910  0.00000   1.0 
   0.10360  0.10360  0.00000   1.0 
   0.10811  0.10811  0.00000   1.0 
   0.11261  0.11261  0.00000   1.0 
   0.11712  0.11712  0.00000   1.0 
   0.12162  0.12162  0.00000   1.0 
   0.12613  0.12613  0.00000   1.0 
   0.13063  0.13063  0.00000   1.0 
   0.13514  0.13514  0.00000   1.0 
   0.13964  0.13964  0.00000   1.0 
   0.14414  0.14414  0.00000   1.0 
   0.14865  0.14865  0.00000   1.0 
   0.15315  0.15315  0.00000   1.0 
   0.15766  0.15766  0.00000   1.0 
   0.16216  0.16216  0.00000   1.0 
   0.16667  0.16667  0.00000   1.0 
   0.17117  0.17117  0.00000   1.0 
   0.17568  0.17568  0.00000   1.0 
   0.18018  0.18018  0.00000   1.0 
   0.18468  0.18468  0.00000   1.0 
   0.18919  0.18919  0.00000   1.0 
   0.19369  0.19369  0.00000   1.0 
   0.19820  0.19820  0.00000   1.0 
   0.20270  0.20270  0.00000   1.0 
   0.20721  0.20721  0.00000   1.0 
   0.21171  0.21171  0.00000   1.0 
   0.21622  0.21622  0.00000   1.0 
   0.22072  0.22072  0.00000   1.0 
   0.22523  0.22523  0.00000   1.0 
   0.22973  0.22973  0.00000   1.0 
   0.23423  0.23423  0.00000   1.0 
   0.23874  0.23874  0.00000   1.0 
   0.24324  0.24324  0.00000   1.0 
   0.24775  0.24775  0.00000   1.0 
   0.25225  0.25225  0.00000   1.0 
   0.25676  0.25676  0.00000   1.0 
   0.26126  0.26126  0.00000   1.0 
   0.26577  0.26577  0.00000   1.0 
   0.27027  0.27027  0.00000   1.0 
   0.27477  0.27477  0.00000   1.0 
   0.27928  0.27928  0.00000   1.0 
   0.28378  0.28378  0.00000   1.0 
   0.28829  0.28829  0.00000   1.0 
   0.29279  0.29279  0.00000   1.0 
   0.29730  0.29730  0.00000   1.0 
   0.30180  0.30180  0.00000   1.0 
   0.30631  0.30631  0.00000   1.0 
   0.31081  0.31081  0.00000   1.0 
   0.31532  0.31532  0.00000   1.0 
   0.31982  0.31982  0.00000   1.0 
   0.32432  0.32432  0.00000   1.0 
   0.32883  0.32883  0.00000   1.0 
   0.33333  0.33333  0.00000   1.0 
   0.33784  0.33784  0.00000   1.0 
   0.34234  0.34234  0.00000   1.0 
   0.34685  0.34685  0.00000   1.0 
   0.35135  0.35135  0.00000   1.0 
   0.35586  0.35586  0.00000   1.0 
   0.36036  0.36036  0.00000   1.0 
   0.36486  0.36486  0.00000   1.0 
   0.36937  0.36937  0.00000   1.0 
   0.37387  0.37387  0.00000   1.0 
   0.37838  0.37838  0.00000   1.0 
   0.38288  0.38288  0.00000   1.0 
   0.38739  0.38739  0.00000   1.0 
   0.39189  0.39189  0.00000   1.0 
   0.39640  0.39640  0.00000   1.0 
   0.40090  0.40090  0.00000   1.0 
   0.40541  0.40541  0.00000   1.0 
   0.40991  0.40991  0.00000   1.0 
   0.41441  0.41441  0.00000   1.0 
   0.41892  0.41892  0.00000   1.0 
   0.42342  0.42342  0.00000   1.0 
   0.42793  0.42793  0.00000   1.0 
   0.43243  0.43243  0.00000   1.0 
   0.43694  0.43694  0.00000   1.0 
   0.44144  0.44144  0.00000   1.0 
   0.44595  0.44595  0.00000   1.0 
   0.45045  0.45045  0.00000   1.0 
   0.45495  0.45495  0.00000   1.0 
   0.45946  0.45946  0.00000   1.0 
   0.46396  0.46396  0.00000   1.0 
   0.46847  0.46847  0.00000   1.0 
   0.47297  0.47297  0.00000   1.0 
   0.47748  0.47748  0.00000   1.0 
   0.48198  0.48198  0.00000   1.0 
   0.48649  0.48649  0.00000   1.0 
   0.49099  0.49099  0.00000   1.0 
   0.50000  0.50000  0.00000   1.0 
   0.50455  0.50000  0.00455   1.0 
   0.50909  0.50000  0.00909   1.0 
   0.51364  0.50000  0.01364   1.0 
   0.51818  0.50000  0.01818   1.0 
   0.52273  0.50000  0.02273   1.0 
   0.52727  0.50000  0.02727   1.0 
   0.53182  0.50000  0.03182   1.0 
   0.53636  0.50000  0.03636   1.0 
   0.54091  0.50000  0.04091   1.0 
   0.54545  0.50000  0.04545   1.0 
   0.55000  0.50000  0.05000   1.0 
   0.55455  0.50000  0.05455   1.0 
   0.55909  0.50000  0.05909   1.0 
   0.56364  0.50000  0.06364   1.0 
   0.56818  0.50000  0.06818   1.0 
   0.57273  0.50000  0.07273   1.0 
   0.57727  0.50000  0.07727   1.0 
   0.58182  0.50000  0.08182   1.0 
   0.58636  0.50000  0.08636   1.0 
   0.59091  0.50000  0.09091   1.0 
   0.59545  0.50000  0.09545   1.0 
   0.60000  0.50000  0.10000   1.0 
   0.60455  0.50000  0.10455   1.0 
   0.60909  0.50000  0.10909   1.0 
   0.61364  0.50000  0.11364   1.0 
   0.61818  0.50000  0.11818   1.0 
   0.62273  0.50000  0.12273   1.0 
   0.62727  0.50000  0.12727   1.0 
   0.63182  0.50000  0.13182   1.0 
   0.63636  0.50000  0.13636   1.0 
   0.64091  0.50000  0.14091   1.0 
   0.64545  0.50000  0.14545   1.0 
   0.65000  0.50000  0.15000   1.0 
   0.65455  0.50000  0.15455   1.0 
   0.65909  0.50000  0.15909   1.0 
   0.66364  0.50000  0.16364   1.0 
   0.66818  0.50000  0.16818   1.0 
   0.67273  0.50000  0.17273   1.0 
   0.67727  0.50000  0.17727   1.0 
   0.68182  0.50000  0.18182   1.0 
   0.68636  0.50000  0.18636   1.0 
   0.69091  0.50000  0.19091   1.0 
   0.69545  0.50000  0.19545   1.0 
   0.70000  0.50000  0.20000   1.0 
   0.70455  0.50000  0.20455   1.0 
   0.70909  0.50000  0.20909   1.0 
   0.71364  0.50000  0.21364   1.0 
   0.71818  0.50000  0.21818   1.0 
   0.72273  0.50000  0.22273   1.0 
   0.72727  0.50000  0.22727   1.0 
   0.73182  0.50000  0.23182   1.0 
   0.73636  0.50000  0.23636   1.0 
   0.74091  0.50000  0.24091   1.0 
   0.75000  0.50000  0.25000   1.0 
   0.74679  0.50000  0.25321   1.0 
   0.74359  0.50000  0.25641   1.0 
   0.74038  0.50000  0.25962   1.0 
   0.73718  0.50000  0.26282   1.0 
   0.73397  0.50000  0.26603   1.0 
   0.73077  0.50000  0.26923   1.0 
   0.72756  0.50000  0.27244   1.0 
   0.72436  0.50000  0.27564   1.0 
   0.72115  0.50000  0.27885   1.0 
   0.71795  0.50000  0.28205   1.0 
   0.71474  0.50000  0.28526   1.0 
   0.71154  0.50000  0.28846   1.0 
   0.70833  0.50000  0.29167   1.0 
   0.70513  0.50000  0.29487   1.0 
   0.70192  0.50000  0.29808   1.0 
   0.69872  0.50000  0.30128   1.0 
   0.69551  0.50000  0.30449   1.0 
   0.69231  0.50000  0.30769   1.0 
   0.68910  0.50000  0.31090   1.0 
   0.68590  0.50000  0.31410   1.0 
   0.68269  0.50000  0.31731   1.0 
   0.67949  0.50000  0.32051   1.0 
   0.67628  0.50000  0.32372   1.0 
   0.67308  0.50000  0.32692   1.0 
   0.66987  0.50000  0.33013   1.0 
   0.66667  0.50000  0.33333   1.0 
   0.66346  0.50000  0.33654   1.0 
   0.66026  0.50000  0.33974   1.0 
   0.65705  0.50000  0.34295   1.0 
   0.65385  0.50000  0.34615   1.0 
   0.65064  0.50000  0.34936   1.0 
   0.64744  0.50000  0.35256   1.0 
   0.64423  0.50000  0.35577   1.0 
   0.64103  0.50000  0.35897   1.0 
   0.63782  0.50000  0.36218   1.0 
   0.63462  0.50000  0.36538   1.0 
   0.63141  0.50000  0.36859   1.0 
   0.62821  0.50000  0.37179   1.0 
   0.62500  0.50000  0.37500   1.0 
   0.62179  0.50000  0.37821   1.0 
   0.61859  0.50000  0.38141   1.0 
   0.61538  0.50000  0.38462   1.0 
   0.61218  0.50000  0.38782   1.0 
   0.60897  0.50000  0.39103   1.0 
   0.60577  0.50000  0.39423   1.0 
   0.60256  0.50000  0.39744   1.0 
   0.59936  0.50000  0.40064   1.0 
   0.59615  0.50000  0.40385   1.0 
   0.59295  0.50000  0.40705   1.0 
   0.58974  0.50000  0.41026   1.0 
   0.58654  0.50000  0.41346   1.0 
   0.58333  0.50000  0.41667   1.0 
   0.58013  0.50000  0.41987   1.0 
   0.57692  0.50000  0.42308   1.0 
   0.57372  0.50000  0.42628   1.0 
   0.57051  0.50000  0.42949   1.0 
   0.56731  0.50000  0.43269   1.0 
   0.56410  0.50000  0.43590   1.0 
   0.56090  0.50000  0.43910   1.0 
   0.55769  0.50000  0.44231   1.0 
   0.55449  0.50000  0.44551   1.0 
   0.55128  0.50000  0.44872   1.0 
   0.54808  0.50000  0.45192   1.0 
   0.54487  0.50000  0.45513   1.0 
   0.54167  0.50000  0.45833   1.0 
   0.53846  0.50000  0.46154   1.0 
   0.53526  0.50000  0.46474   1.0 
   0.53205  0.50000  0.46795   1.0 
   0.52885  0.50000  0.47115   1.0 
   0.52564  0.50000  0.47436   1.0 
   0.52244  0.50000  0.47756   1.0 
   0.51923  0.50000  0.48077   1.0 
   0.51603  0.50000  0.48397   1.0 
   0.51282  0.50000  0.48718   1.0 
   0.50962  0.50000  0.49038   1.0 
   0.50641  0.50000  0.49359   1.0 
   0.50000  0.50000  0.50000   1.0 
   0.49479  0.49479  0.49479   1.0 
   0.48958  0.48958  0.48958   1.0 
   0.48438  0.48438  0.48438   1.0 
   0.47917  0.47917  0.47917   1.0 
   0.47396  0.47396  0.47396   1.0 
   0.46875  0.46875  0.46875   1.0 
   0.46354  0.46354  0.46354   1.0 
   0.45833  0.45833  0.45833   1.0 
   0.45312  0.45312  0.45312   1.0 
   0.44792  0.44792  0.44792   1.0 
   0.44271  0.44271  0.44271   1.0 
   0.43750  0.43750  0.43750   1.0 
   0.43229  0.43229  0.43229   1.0 
   0.42708  0.42708  0.42708   1.0 
   0.42188  0.42188  0.42188   1.0 
   0.41667  0.41667  0.41667   1.0 
   0.41146  0.41146  0.41146   1.0 
   0.40625  0.40625  0.40625   1.0 
   0.40104  0.40104  0.40104   1.0 
   0.39583  0.39583  0.39583   1.0 
   0.39062  0.39062  0.39062   1.0 
   0.38542  0.38542  0.38542   1.0 
   0.38021  0.38021  0.38021   1.0 
   0.37500  0.37500  0.37500   1.0 
   0.36979  0.36979  0.36979   1.0 
   0.36458  0.36458  0.36458   1.0 
   0.35938  0.35938  0.35938   1.0 
   0.35417  0.35417  0.35417   1.0 
   0.34896  0.34896  0.34896   1.0 
   0.34375  0.34375  0.34375   1.0 
   0.33854  0.33854  0.33854   1.0 
   0.33333  0.33333  0.33333   1.0 
   0.32812  0.32812  0.32812   1.0 
   0.32292  0.32292  0.32292   1.0 
   0.31771  0.31771  0.31771   1.0 
   0.31250  0.31250  0.31250   1.0 
   0.30729  0.30729  0.30729   1.0 
   0.30208  0.30208  0.30208   1.0 
   0.29687  0.29687  0.29687   1.0 
   0.29167  0.29167  0.29167   1.0 
   0.28646  0.28646  0.28646   1.0 
   0.28125  0.28125  0.28125   1.0 
   0.27604  0.27604  0.27604   1.0 
   0.27083  0.27083  0.27083   1.0 
   0.26562  0.26562  0.26562   1.0 
   0.26042  0.26042  0.26042   1.0 
   0.25521  0.25521  0.25521   1.0 
   0.25000  0.25000  0.25000   1.0 
   0.24479  0.24479  0.24479   1.0 
   0.23958  0.23958  0.23958   1.0 
   0.23437  0.23437  0.23437   1.0 
   0.22917  0.22917  0.22917   1.0 
   0.22396  0.22396  0.22396   1.0 
   0.21875  0.21875  0.21875   1.0 
   0.21354  0.21354  0.21354   1.0 
   0.20833  0.20833  0.20833   1.0 
   0.20313  0.20313  0.20313   1.0 
   0.19792  0.19792  0.19792   1.0 
   0.19271  0.19271  0.19271   1.0 
   0.18750  0.18750  0.18750   1.0 
   0.18229  0.18229  0.18229   1.0 
   0.17708  0.17708  0.17708   1.0 
   0.17187  0.17187  0.17187   1.0 
   0.16667  0.16667  0.16667   1.0 
   0.16146  0.16146  0.16146   1.0 
   0.15625  0.15625  0.15625   1.0 
   0.15104  0.15104  0.15104   1.0 
   0.14583  0.14583  0.14583   1.0 
   0.14062  0.14062  0.14062   1.0 
   0.13542  0.13542  0.13542   1.0 
   0.13021  0.13021  0.13021   1.0 
   0.12500  0.12500  0.12500   1.0 
   0.11979  0.11979  0.11979   1.0 
   0.11458  0.11458  0.11458   1.0 
   0.10938  0.10938  0.10938   1.0 
   0.10417  0.10417  0.10417   1.0 
   0.09896  0.09896  0.09896   1.0 
   0.09375  0.09375  0.09375   1.0 
   0.08854  0.08854  0.08854   1.0 
   0.08333  0.08333  0.08333   1.0 
   0.07812  0.07812  0.07812   1.0 
   0.07292  0.07292  0.07292   1.0 
   0.06771  0.06771  0.06771   1.0 
   0.06250  0.06250  0.06250   1.0 
   0.05729  0.05729  0.05729   1.0 
   0.05208  0.05208  0.05208   1.0 
   0.04687  0.04687  0.04687   1.0 
   0.04167  0.04167  0.04167   1.0 
   0.03646  0.03646  0.03646   1.0 
   0.03125  0.03125  0.03125   1.0 
   0.02604  0.02604  0.02604   1.0 
   0.02083  0.02083  0.02083   1.0 
   0.01563  0.01563  0.01563   1.0 
   0.01042  0.01042  0.01042   1.0 
   0.00000  0.00000  0.00000   1.0 
   0.00636  0.00318  0.00318   1.0 
   0.01271  0.00636  0.00636   1.0 
   0.01907  0.00953  0.00953   1.0 
   0.02542  0.01271  0.01271   1.0 
   0.03178  0.01589  0.01589   1.0 
   0.03814  0.01907  0.01907   1.0 
   0.04449  0.02225  0.02225   1.0 
   0.05085  0.02542  0.02542   1.0 
   0.05720  0.02860  0.02860   1.0 
   0.06356  0.03178  0.03178   1.0 
   0.06992  0.03496  0.03496   1.0 
   0.07627  0.03814  0.03814   1.0 
   0.08263  0.04131  0.04131   1.0 
   0.08898  0.04449  0.04449   1.0 
   0.09534  0.04767  0.04767   1.0 
   0.10169  0.05085  0.05085   1.0 
   0.10805  0.05403  0.05403   1.0 
   0.11441  0.05720  0.05720   1.0 
   0.12076  0.06038  0.06038   1.0 
   0.12712  0.06356  0.06356   1.0 
   0.13347  0.06674  0.06674   1.0 
   0.13983  0.06992  0.06992   1.0 
   0.14619  0.07309  0.07309   1.0 
   0.15254  0.07627  0.07627   1.0 
   0.15890  0.07945  0.07945   1.0 
   0.16525  0.08263  0.08263   1.0 
   0.17161  0.08581  0.08581   1.0 
   0.17797  0.08898  0.08898   1.0 
   0.18432  0.09216  0.09216   1.0 
   0.19068  0.09534  0.09534   1.0 
   0.19703  0.09852  0.09852   1.0 
   0.20339  0.10169  0.10169   1.0 
   0.20975  0.10487  0.10487   1.0 
   0.21610  0.10805  0.10805   1.0 
   0.22246  0.11123  0.11123   1.0 
   0.22881  0.11441  0.11441   1.0 
   0.23517  0.11758  0.11758   1.0 
   0.24153  0.12076  0.12076   1.0 
   0.24788  0.12394  0.12394   1.0 
   0.25424  0.12712  0.12712   1.0 
   0.26059  0.13030  0.13030   1.0 
   0.26695  0.13347  0.13347   1.0 
   0.27331  0.13665  0.13665   1.0 
   0.27966  0.13983  0.13983   1.0 
   0.28602  0.14301  0.14301   1.0 
   0.29237  0.14619  0.14619   1.0 
   0.29873  0.14936  0.14936   1.0 
   0.30508  0.15254  0.15254   1.0 
   0.31144  0.15572  0.15572   1.0 
   0.31780  0.15890  0.15890   1.0 
   0.32415  0.16208  0.16208   1.0 
   0.33051  0.16525  0.16525   1.0 
   0.33686  0.16843  0.16843   1.0 
   0.34322  0.17161  0.17161   1.0 
   0.34958  0.17479  0.17479   1.0 
   0.35593  0.17797  0.17797   1.0 
   0.36229  0.18114  0.18114   1.0 
   0.36864  0.18432  0.18432   1.0 
   0.37500  0.18750  0.18750   1.0 
   0.38136  0.19068  0.19068   1.0 
   0.38771  0.19386  0.19386   1.0 
   0.39407  0.19703  0.19703   1.0 
   0.40042  0.20021  0.20021   1.0 
   0.40678  0.20339  0.20339   1.0 
   0.41314  0.20657  0.20657   1.0 
   0.41949  0.20975  0.20975   1.0 
   0.42585  0.21292  0.21292   1.0 
   0.43220  0.21610  0.21610   1.0 
   0.43856  0.21928  0.21928   1.0 
   0.44492  0.22246  0.22246   1.0 
   0.45127  0.22564  0.22564   1.0 
   0.45763  0.22881  0.22881   1.0 
   0.46398  0.23199  0.23199   1.0 
   0.47034  0.23517  0.23517   1.0 
   0.47669  0.23835  0.23835   1.0 
   0.48305  0.24153  0.24153   1.0 
   0.48941  0.24470  0.24470   1.0 
   0.49576  0.24788  0.24788   1.0 
   0.50212  0.25106  0.25106   1.0 
   0.50847  0.25424  0.25424   1.0 
   0.51483  0.25742  0.25742   1.0 
   0.52119  0.26059  0.26059   1.0 
   0.52754  0.26377  0.26377   1.0 
   0.53390  0.26695  0.26695   1.0 
   0.54025  0.27013  0.27013   1.0 
   0.54661  0.27331  0.27331   1.0 
   0.55297  0.27648  0.27648   1.0 
   0.55932  0.27966  0.27966   1.0 
   0.56568  0.28284  0.28284   1.0 
   0.57203  0.28602  0.28602   1.0 
   0.57839  0.28919  0.28919   1.0 
   0.58475  0.29237  0.29237   1.0 
   0.59110  0.29555  0.29555   1.0 
   0.59746  0.29873  0.29873   1.0 
   0.60381  0.30191  0.30191   1.0 
   0.61017  0.30508  0.30508   1.0 
   0.61653  0.30826  0.30826   1.0 
   0.62288  0.31144  0.31144   1.0 
   0.62924  0.31462  0.31462   1.0 
   0.63559  0.31780  0.31780   1.0 
   0.64195  0.32097  0.32097   1.0 
   0.64831  0.32415  0.32415   1.0 
   0.65466  0.32733  0.32733   1.0 
   0.66102  0.33051  0.33051   1.0 
   0.66737  0.33369  0.33369   1.0 
   0.67373  0.33686  0.33686   1.0 
   0.68008  0.34004  0.34004   1.0 
   0.68644  0.34322  0.34322   1.0 
   0.69280  0.34640  0.34640   1.0 
   0.69915  0.34958  0.34958   1.0 
   0.70551  0.35275  0.35275   1.0 
   0.71186  0.35593  0.35593   1.0 
   0.71822  0.35911  0.35911   1.0 
   0.72458  0.36229  0.36229   1.0 
   0.73093  0.36547  0.36547   1.0 
   0.73729  0.36864  0.36864   1.0 
   0.75000  0.37500  0.37500   1.0 
   0.75000  0.37821  0.37179   1.0 
   0.75000  0.38141  0.36859   1.0 
   0.75000  0.38462  0.36538   1.0 
   0.75000  0.38782  0.36218   1.0 
   0.75000  0.39103  0.35897   1.0 
   0.75000  0.39423  0.35577   1.0 
   0.75000  0.39744  0.35256   1.0 
   0.75000  0.40064  0.34936   1.0 
   0.75000  0.40385  0.34615   1.0 
   0.75000  0.40705  0.34295   1.0 
   0.75000  0.41026  0.33974   1.0 
   0.75000  0.41346  0.33654   1.0 
   0.75000  0.41667  0.33333   1.0 
   0.75000  0.41987  0.33013   1.0 
   0.75000  0.42308  0.32692   1.0 
   0.75000  0.42628  0.32372   1.0 
   0.75000  0.42949  0.32051   1.0 
   0.75000  0.43269  0.31731   1.0 
   0.75000  0.43590  0.31410   1.0 
   0.75000  0.43910  0.31090   1.0 
   0.75000  0.44231  0.30769   1.0 
   0.75000  0.44551  0.30449   1.0 
   0.75000  0.44872  0.30128   1.0 
   0.75000  0.45192  0.29808   1.0 
   0.75000  0.45513  0.29487   1.0 
   0.75000  0.45833  0.29167   1.0 
   0.75000  0.46154  0.28846   1.0 
   0.75000  0.46474  0.28526   1.0 
   0.75000  0.46795  0.28205   1.0 
   0.75000  0.47115  0.27885   1.0 
   0.75000  0.47436  0.27564   1.0 
   0.75000  0.47756  0.27244   1.0 
   0.75000  0.48077  0.26923   1.0 
   0.75000  0.48397  0.26603   1.0 
   0.75000  0.48718  0.26282   1.0 
   0.75000  0.49038  0.25962   1.0 
   0.75000  0.49359  0.25641   1.0 
   0.75000  0.50000  0.25000   1.0 
