 &control
    calculation='nscf'
    pseudo_dir = './',
    prefix='silicon'
 /
 &system    
    ibrav=  2, celldm(1) =10.599478, nat=  2, ntyp= 1,
    ecutwfc =30.0,  nbnd = 16
 /
 &electrons
    mixing_mode = 'plain'
    mixing_beta = 0.7
    conv_thr =  1.0d-8
 /
ATOMIC_SPECIES
 Si  28.086  Si.vbc.UPF
ATOMIC_POSITIONS (alat)
 Si 0.00 0.00 0.00 
 Si 0.25 0.25 0.25 
K_POINTS (crystal)
   216
    0.000000000    0.000000000    0.000000000      0.009259
    0.166666672    0.000000000    0.000000000      0.009259
    0.333333343    0.000000000    0.000000000      0.009259
    0.500000000    0.000000000    0.000000000      0.009259
    0.666666687    0.000000000    0.000000000      0.009259
    0.833333313    0.000000000    0.000000000      0.009259
    0.000000000    0.166666672    0.000000000      0.009259
    0.166666672    0.166666672    0.000000000      0.009259
    0.333333343    0.166666672    0.000000000      0.009259
    0.500000000    0.166666672    0.000000000      0.009259
    0.666666687    0.166666672    0.000000000      0.009259
    0.833333313    0.166666672    0.000000000      0.009259
    0.000000000    0.333333343    0.000000000      0.009259
    0.166666672    0.333333343    0.000000000      0.009259
    0.333333343    0.333333343    0.000000000      0.009259
    0.500000000    0.333333343    0.000000000      0.009259
    0.666666687    0.333333343    0.000000000      0.009259
    0.833333313    0.333333343    0.000000000      0.009259
    0.000000000    0.500000000    0.000000000      0.009259
    0.166666672    0.500000000    0.000000000      0.009259
    0.333333343    0.500000000    0.000000000      0.009259
    0.500000000    0.500000000    0.000000000      0.009259
    0.666666687    0.500000000    0.000000000      0.009259
    0.833333313    0.500000000    0.000000000      0.009259
    0.000000000    0.666666687    0.000000000      0.009259
    0.166666672    0.666666687    0.000000000      0.009259
    0.333333343    0.666666687    0.000000000      0.009259
    0.500000000    0.666666687    0.000000000      0.009259
    0.666666687    0.666666687    0.000000000      0.009259
    0.833333313    0.666666687    0.000000000      0.009259
    0.000000000    0.833333313    0.000000000      0.009259
    0.166666672    0.833333313    0.000000000      0.009259
    0.333333343    0.833333313    0.000000000      0.009259
    0.500000000    0.833333313    0.000000000      0.009259
    0.666666687    0.833333313    0.000000000      0.009259
    0.833333313    0.833333313    0.000000000      0.009259
    0.000000000    0.000000000    0.166666672      0.009259
    0.166666672    0.000000000    0.166666672      0.009259
    0.333333343    0.000000000    0.166666672      0.009259
    0.500000000    0.000000000    0.166666672      0.009259
    0.666666687    0.000000000    0.166666672      0.009259
    0.833333313    0.000000000    0.166666672      0.009259
    0.000000000    0.166666672    0.166666672      0.009259
    0.166666672    0.166666672    0.166666672      0.009259
    0.333333343    0.166666672    0.166666672      0.009259
    0.500000000    0.166666672    0.166666672      0.009259
    0.666666687    0.166666672    0.166666672      0.009259
    0.833333313    0.166666672    0.166666672      0.009259
    0.000000000    0.333333343    0.166666672      0.009259
    0.166666672    0.333333343    0.166666672      0.009259
    0.333333343    0.333333343    0.166666672      0.009259
    0.500000000    0.333333343    0.166666672      0.009259
    0.666666687    0.333333343    0.166666672      0.009259
    0.833333313    0.333333343    0.166666672      0.009259
    0.000000000    0.500000000    0.166666672      0.009259
    0.166666672    0.500000000    0.166666672      0.009259
    0.333333343    0.500000000    0.166666672      0.009259
    0.500000000    0.500000000    0.166666672      0.009259
    0.666666687    0.500000000    0.166666672      0.009259
    0.833333313    0.500000000    0.166666672      0.009259
    0.000000000    0.666666687    0.166666672      0.009259
    0.166666672    0.666666687    0.166666672      0.009259
    0.333333343    0.666666687    0.166666672      0.009259
    0.500000000    0.666666687    0.166666672      0.009259
    0.666666687    0.666666687    0.166666672      0.009259
    0.833333313    0.666666687    0.166666672      0.009259
    0.000000000    0.833333313    0.166666672      0.009259
    0.166666672    0.833333313    0.166666672      0.009259
    0.333333343    0.833333313    0.166666672      0.009259
    0.500000000    0.833333313    0.166666672      0.009259
    0.666666687    0.833333313    0.166666672      0.009259
    0.833333313    0.833333313    0.166666672      0.009259
    0.000000000    0.000000000    0.333333343      0.009259
    0.166666672    0.000000000    0.333333343      0.009259
    0.333333343    0.000000000    0.333333343      0.009259
    0.500000000    0.000000000    0.333333343      0.009259
    0.666666687    0.000000000    0.333333343      0.009259
    0.833333313    0.000000000    0.333333343      0.009259
    0.000000000    0.166666672    0.333333343      0.009259
    0.166666672    0.166666672    0.333333343      0.009259
    0.333333343    0.166666672    0.333333343      0.009259
    0.500000000    0.166666672    0.333333343      0.009259
    0.666666687    0.166666672    0.333333343      0.009259
    0.833333313    0.166666672    0.333333343      0.009259
    0.000000000    0.333333343    0.333333343      0.009259
    0.166666672    0.333333343    0.333333343      0.009259
    0.333333343    0.333333343    0.333333343      0.009259
    0.500000000    0.333333343    0.333333343      0.009259
    0.666666687    0.333333343    0.333333343      0.009259
    0.833333313    0.333333343    0.333333343      0.009259
    0.000000000    0.500000000    0.333333343      0.009259
    0.166666672    0.500000000    0.333333343      0.009259
    0.333333343    0.500000000    0.333333343      0.009259
    0.500000000    0.500000000    0.333333343      0.009259
    0.666666687    0.500000000    0.333333343      0.009259
    0.833333313    0.500000000    0.333333343      0.009259
    0.000000000    0.666666687    0.333333343      0.009259
    0.166666672    0.666666687    0.333333343      0.009259
    0.333333343    0.666666687    0.333333343      0.009259
    0.500000000    0.666666687    0.333333343      0.009259
    0.666666687    0.666666687    0.333333343      0.009259
    0.833333313    0.666666687    0.333333343      0.009259
    0.000000000    0.833333313    0.333333343      0.009259
    0.166666672    0.833333313    0.333333343      0.009259
    0.333333343    0.833333313    0.333333343      0.009259
    0.500000000    0.833333313    0.333333343      0.009259
    0.666666687    0.833333313    0.333333343      0.009259
    0.833333313    0.833333313    0.333333343      0.009259
    0.000000000    0.000000000    0.500000000      0.009259
    0.166666672    0.000000000    0.500000000      0.009259
    0.333333343    0.000000000    0.500000000      0.009259
    0.500000000    0.000000000    0.500000000      0.009259
    0.666666687    0.000000000    0.500000000      0.009259
    0.833333313    0.000000000    0.500000000      0.009259
    0.000000000    0.166666672    0.500000000      0.009259
    0.166666672    0.166666672    0.500000000      0.009259
    0.333333343    0.166666672    0.500000000      0.009259
    0.500000000    0.166666672    0.500000000      0.009259
    0.666666687    0.166666672    0.500000000      0.009259
    0.833333313    0.166666672    0.500000000      0.009259
    0.000000000    0.333333343    0.500000000      0.009259
    0.166666672    0.333333343    0.500000000      0.009259
    0.333333343    0.333333343    0.500000000      0.009259
    0.500000000    0.333333343    0.500000000      0.009259
    0.666666687    0.333333343    0.500000000      0.009259
    0.833333313    0.333333343    0.500000000      0.009259
    0.000000000    0.500000000    0.500000000      0.009259
    0.166666672    0.500000000    0.500000000      0.009259
    0.333333343    0.500000000    0.500000000      0.009259
    0.500000000    0.500000000    0.500000000      0.009259
    0.666666687    0.500000000    0.500000000      0.009259
    0.833333313    0.500000000    0.500000000      0.009259
    0.000000000    0.666666687    0.500000000      0.009259
    0.166666672    0.666666687    0.500000000      0.009259
    0.333333343    0.666666687    0.500000000      0.009259
    0.500000000    0.666666687    0.500000000      0.009259
    0.666666687    0.666666687    0.500000000      0.009259
    0.833333313    0.666666687    0.500000000      0.009259
    0.000000000    0.833333313    0.500000000      0.009259
    0.166666672    0.833333313    0.500000000      0.009259
    0.333333343    0.833333313    0.500000000      0.009259
    0.500000000    0.833333313    0.500000000      0.009259
    0.666666687    0.833333313    0.500000000      0.009259
    0.833333313    0.833333313    0.500000000      0.009259
    0.000000000    0.000000000    0.666666687      0.009259
    0.166666672    0.000000000    0.666666687      0.009259
    0.333333343    0.000000000    0.666666687      0.009259
    0.500000000    0.000000000    0.666666687      0.009259
    0.666666687    0.000000000    0.666666687      0.009259
    0.833333313    0.000000000    0.666666687      0.009259
    0.000000000    0.166666672    0.666666687      0.009259
    0.166666672    0.166666672    0.666666687      0.009259
    0.333333343    0.166666672    0.666666687      0.009259
    0.500000000    0.166666672    0.666666687      0.009259
    0.666666687    0.166666672    0.666666687      0.009259
    0.833333313    0.166666672    0.666666687      0.009259
    0.000000000    0.333333343    0.666666687      0.009259
    0.166666672    0.333333343    0.666666687      0.009259
    0.333333343    0.333333343    0.666666687      0.009259
    0.500000000    0.333333343    0.666666687      0.009259
    0.666666687    0.333333343    0.666666687      0.009259
    0.833333313    0.333333343    0.666666687      0.009259
    0.000000000    0.500000000    0.666666687      0.009259
    0.166666672    0.500000000    0.666666687      0.009259
    0.333333343    0.500000000    0.666666687      0.009259
    0.500000000    0.500000000    0.666666687      0.009259
    0.666666687    0.500000000    0.666666687      0.009259
    0.833333313    0.500000000    0.666666687      0.009259
    0.000000000    0.666666687    0.666666687      0.009259
    0.166666672    0.666666687    0.666666687      0.009259
    0.333333343    0.666666687    0.666666687      0.009259
    0.500000000    0.666666687    0.666666687      0.009259
    0.666666687    0.666666687    0.666666687      0.009259
    0.833333313    0.666666687    0.666666687      0.009259
    0.000000000    0.833333313    0.666666687      0.009259
    0.166666672    0.833333313    0.666666687      0.009259
    0.333333343    0.833333313    0.666666687      0.009259
    0.500000000    0.833333313    0.666666687      0.009259
    0.666666687    0.833333313    0.666666687      0.009259
    0.833333313    0.833333313    0.666666687      0.009259
    0.000000000    0.000000000    0.833333313      0.009259
    0.166666672    0.000000000    0.833333313      0.009259
    0.333333343    0.000000000    0.833333313      0.009259
    0.500000000    0.000000000    0.833333313      0.009259
    0.666666687    0.000000000    0.833333313      0.009259
    0.833333313    0.000000000    0.833333313      0.009259
    0.000000000    0.166666672    0.833333313      0.009259
    0.166666672    0.166666672    0.833333313      0.009259
    0.333333343    0.166666672    0.833333313      0.009259
    0.500000000    0.166666672    0.833333313      0.009259
    0.666666687    0.166666672    0.833333313      0.009259
    0.833333313    0.166666672    0.833333313      0.009259
    0.000000000    0.333333343    0.833333313      0.009259
    0.166666672    0.333333343    0.833333313      0.009259
    0.333333343    0.333333343    0.833333313      0.009259
    0.500000000    0.333333343    0.833333313      0.009259
    0.666666687    0.333333343    0.833333313      0.009259
    0.833333313    0.333333343    0.833333313      0.009259
    0.000000000    0.500000000    0.833333313      0.009259
    0.166666672    0.500000000    0.833333313      0.009259
    0.333333343    0.500000000    0.833333313      0.009259
    0.500000000    0.500000000    0.833333313      0.009259
    0.666666687    0.500000000    0.833333313      0.009259
    0.833333313    0.500000000    0.833333313      0.009259
    0.000000000    0.666666687    0.833333313      0.009259
    0.166666672    0.666666687    0.833333313      0.009259
    0.333333343    0.666666687    0.833333313      0.009259
    0.500000000    0.666666687    0.833333313      0.009259
    0.666666687    0.666666687    0.833333313      0.009259
    0.833333313    0.666666687    0.833333313      0.009259
    0.000000000    0.833333313    0.833333313      0.009259
    0.166666672    0.833333313    0.833333313      0.009259
    0.333333343    0.833333313    0.833333313      0.009259
    0.500000000    0.833333313    0.833333313      0.009259
    0.666666687    0.833333313    0.833333313      0.009259
    0.833333313    0.833333313    0.833333313      0.009259
