&inputpp
  prefix='silicon_US'
  outdir='./'
  pseudo_dir='./'
  psfile(1)='Si.pbe-n-van.UPF'
  single_file= .FALSE.
  ascii = .TRUE.
/
