
&CONTROL
    prefix = 'silicon_US'
    postfix = '_WanT'
    work_dir = './SCRATCH/'
/

&SUBSPACE
    dimwann = 8       
    win_max =  14.95
    maxiter_dis = 200
    subspace_init = 'center_projections'
/

&LOCALIZATION
    maxiter0_wan  = 100
    maxiter1_wan  = 10000
    alpha1_wan = 0.7
    ncg = 5      
    wannier_thr = 1.e-8
/

WANNIER_CENTERS {crystal}
1gauss   0.1250  0.1250  0.1250    -1  1    1.0       ! (centers for valence)
1gauss   0.1250 -0.1250 -0.1250    -1  2    1.0
1gauss  -0.1250  0.1250 -0.1250    -1  3    1.0
1gauss  -0.1250 -0.1250  0.1250    -1  4    1.0
2gauss   0.0625  0.0625  0.0625    0.1875  0.1875  0.1875  1.5    ! (centers for conduction)
2gauss  -0.1875  0.0625  0.0625   -0.5625  0.1875  0.1875  1.5
2gauss   0.0625 -0.1875  0.0625    0.1875 -0.5625  0.1875  1.5
2gauss   0.0625  0.0625 -0.1875    0.1875  0.1875 -0.5625  1.5

