
 &INPUT
   prefix    = 'gold_US'
   postfix   = '_WanT_UNFLD_PROJ'
   datafile_dft = './SCRATCH/gold_US_WanT_UNFLD_PROJ.ham'
   work_dir  = './SCRATCH'
   fileout   = 'bands_AuUS_unfld_proj.dat'
   nkpts_in  = 2
   nkpts_max = 100
 /
G   0.0 0.0 0.0
Z   0.0 0.0 0.5

