5 atoms
   &CONTROL
      calculation = 'nscf',
      restart_mode='from_scratch',
      verbosity='default',
      prefix='gold_US',
      nstep=100,
      tstress = .false.,
      tprnfor = .true.,
      pseudo_dir = '../pseudo',
      outdir = './SCRATCH',
      wf_collect = .TRUE.
   /
   &SYSTEM
      ibrav=8, 
      celldm(1)=20.0, 
      celldm(2)=1.0,
      celldm(3)=1.181080
      nat=5, 
      ntyp=1,
      ecutwfc=25.0,
      ecutrho=200.0,
      occupations='smearing',
      smearing='gaussian',
      degauss=0.01,
      nbnd=50
   /
   &ELECTRONS
      electron_maxstep = 100,
      mixing_mode = 'plain',
      mixing_beta = 0.3,
      conv_thr =  1.0d-8,
   /
ATOMIC_SPECIES
  Au   196.9665   Au.pw91-d-van.UPF
ATOMIC_POSITIONS {crystal}
Au        0.00000     0.00000    0.00000
Au        0.00000     0.00000    0.20000
Au        0.00000     0.00000    0.40000
Au        0.00000     0.00000    0.60000
Au        0.00000     0.00000    0.80000
K_POINTS {gamma}

