
&INPUT
    prefix = "H2_kpt"
    postfix = "_WanT"
    postfix_unfld = "_WanT_UNFLD"
    translations = "from_scratch"
    work_dir = "./SCRATCH"
    ndiv(1) = 1
    ndiv(2) = 1
    ndiv(3) = 10
/
