
&INPUT
    prefix = "gold_US"
    postfix = "_WanT_PROJ"
    postfix_unfld = "_WanT_UNFLD_PROJ"
    datafile_dft = "./SCRATCH/gold_US.save/atomic_proj.dat"
    translations = "from_scratch"
    work_dir = "./SCRATCH"
    ndiv(1) = 1
    ndiv(2) = 1
    ndiv(3) = 12
    do_orthoovp = .FALSE.
    atmproj_sh = 2.0
    atmproj_thr = 0.3
/
