
&CONTROL
   prefix = 'H2_kpt'
   postfix = '_WanT'
   work_dir = './SCRATCH/'
   restart_mode = 'from_scratch'
/

&SUBSPACE
   dimwann = 10    
   win_max =  -4.0
/   

&LOCALIZATION
   maxiter0_wan = 100
   maxiter1_wan = 1500
   ncg = 5       
   collect_wf = .TRUE.
   xcell(3) = 0.0 
/

WANNIER_CENTERS (bohr)
1gauss   0.0  0.0   1.0    0  0  1.0 
1gauss   0.0  0.0   6.0    0  0  1.0 
1gauss   0.0  0.0  11.0    0  0  1.0 
1gauss   0.0  0.0  16.0    0  0  1.0 
1gauss   0.0  0.0  21.0    0  0  1.0 
1gauss   0.0  0.0  26.0    0  0  1.0 
1gauss   0.0  0.0  31.0    0  0  1.0 
1gauss   0.0  0.0  36.0    0  0  1.0 
1gauss   0.0  0.0  41.0    0  0  1.0 
1gauss   0.0  0.0  46.0    0  0  1.0 

