Au bulk

   &CONTROL
      calculation = 'nscf',
      restart_mode='from_scratch',
      prefix='au_bulk',
      nstep=50,
      pseudo_dir = '../pseudo/',
      outdir = './SCRATCH'
      wf_collect = .TRUE.
   /
   &SYSTEM
      ibrav=8, 
      celldm(1)=15.0,
      celldm(2)=1.0,
      celldm(3)=1.25981791851        ! = 4 * 2.5 Ang = 10 Ang = 18.8972687777 bohr
      nat=4, 
      ntyp=1,
      ecutwfc=22.0,
      ecutrho=176.0,
      occupations='smearing',
      smearing='gaussian',
      degauss=0.01,
      input_dft='PBE'
      nbnd = 40
      noinv=.TRUE.
      nosym=.TRUE.
   /
   &ELECTRONS
      electron_maxstep = 50,
      mixing_mode = 'plain',
      mixing_beta = 0.3,
      conv_thr =  1.0d-8,
   /
ATOMIC_SPECIES
  Au   196.9665   Au.pw91-d-van.UPF
ATOMIC_POSITIONS {angstrom}
Au       0.0   0.0   -5.0
Au       0.0   0.0   -2.5
Au       0.0   0.0    0.0
Au       0.0   0.0    2.5
K_POINTS {automatic}
   1 1 8    0  0  1

