Au-BDA-Au

   &CONTROL
      calculation = 'nscf',
      restart_mode='from_scratch',
      prefix='au_bda',
      nstep=50,
      pseudo_dir = '../pseudo/',
      outdir = './SCRATCH'
      wf_collect=.TRUE.
   /
   &SYSTEM
      ibrav=8, 
      celldm(1)=15.0,
      celldm(2)=1.0,
      celldm(3)=3.62071332893     ! = 54.310699934 Bohr = 28.739973259 Ang
      nat=25, 
      ntyp=4,
      ecutwfc=22.0,
      ecutrho=176.0,
      occupations='smearing',
      smearing='gaussian',
      degauss=0.01,
      input_dft='PBE'
      noinv=.TRUE.
      nosym=.TRUE.
      nbnd=140
   /
   &ELECTRONS
      electron_maxstep = 50,
      mixing_mode = 'plain',
      mixing_beta = 0.3,
      conv_thr =  1.0d-8,
   /
ATOMIC_SPECIES
  Au   196.9665   Au.pw91-d-van.UPF
   C    12.01      C.pbe-van_bm.UPF
   N    14.01      N.pbe-van_bm.UPF
   H     1.008     H.pbe-van_bm.UPF
ATOMIC_POSITIONS {angstrom}
Au       1.246766540   0.826208921 -11.884870447
Au       1.246766540   0.826208921  -9.384870447
Au       1.246766540   0.826208921  -6.884870447
Au       1.246766540   0.826208921  -4.384870447
H        2.977147440   2.151772315  -2.768932538
H        1.507206830   2.899307635  -2.684522840
N        2.007836341   2.040935147  -2.510687398
C        1.780010864   1.468980256  -1.245634484
H        3.642126280   0.391798389  -1.196157451
H       -0.158666104   2.372690905  -1.000582898
C        0.577849562   1.698864505  -0.571558963
C        2.708494490   0.593670307  -0.678694118
C        2.444474653  -0.029159069   0.533504310
C        0.314972710   1.078615257   0.640026411
C        1.246123933   0.206553672   1.210533165
H        3.176634340  -0.711308339   0.956540099
H       -0.619824047   1.279331101   1.156159885
N        1.013096143  -0.353464857   2.481510696
H        0.049215178  -0.572604310   2.685812023
H        1.599069804  -1.141979781   2.711904755
Au       1.417241981   1.021269350   4.355102812
Au       1.417241981   1.021269350   6.855102812
Au       1.417241981   1.021269350   9.355102812
Au       1.417241981   1.021269350  11.855102812
Au       1.417241981   1.021269350  14.355102812
K_POINTS {automatic}
   1 1 4    0  0  1

