
&CONTROL
   prefix = 'au_bda'
   postfix = '_WanT'
   work_dir = './SCRATCH/'
   verbosity = 'high'
/

&SUBSPACE
   dimwann = 77
   froz_max = -2.2     ! Ef = -3.2
   maxiter_dis = 2000
/

&LOCALIZATION
   a_condmin = 10.0
   maxiter0_wan = 100, 
   maxiter1_wan = 5000, 
   ncg = 5      
/

WANNIER_CENTERS {angstrom}
1gauss       1.332003735    0.923738771  -13.134870934      0  0  0.5    1.0          Au -- Au
atomic   1   2 -2   1.0
atomic   1   2 -1   1.0
atomic   1   2  0   1.0
atomic   1   2  1   1.0
atomic   1   2  2   1.0
1gauss       1.246766049    0.826208595  -10.634866255      0  0  0.5    1.0          Au -- Au
atomic   2   2 -2   1.0
atomic   2   2 -1   1.0
atomic   2   2  0   1.0
atomic   2   2  1   1.0
atomic   2   2  2   1.0
1gauss       1.246766049    0.826208595   -8.134867240      0  0  0.5    1.0          Au -- Au 
atomic   3   2 -2   1.0
atomic   3   2 -1   1.0
atomic   3   2  0   1.0
atomic   3   2  1   1.0
atomic   3   2  2   1.0
1gauss       1.246766049    0.826208595   -5.634868226      0  0  0.5    1.0          Au -- Au 
atomic   4   2 -2   1.0
atomic   4   2 -1   1.0
atomic   4   2  0   1.0
atomic   4   2  1   1.0
atomic   4   2  2   1.0
1gauss       1.627300799    1.433571469   -3.447777563      0  0  0.5    0.0          Au -- N  
1gauss       2.492490908    2.096352905   -2.639808927      0  0  0.5    0.0          N  -- H  
1gauss       1.757520893    2.470120417   -2.597604095      0  0  0.5    0.0          N  -- H  
1gauss       1.893922856    1.754957010   -1.878160201      0  0  0.5    0.0          C  -- N  
1gauss      -0.152425608    1.178972714    0.898092794      0  0  0.5    0.0          C  -- H  
1gauss       0.780548014    0.642584211    0.925279423      0  0  0.5    0.0          C  -- C  
1gauss       2.810553389   -0.370233558    0.745021911      0  0  0.5    0.0          C  -- H  
1gauss       1.845298566    0.088697267    0.872018394      0  0  0.5    0.0          C  -- C  
1gauss       2.576483556    0.282255508   -0.072594875      0  0  0.5    0.0          C  -- C  
atomic   8   1  0   0.5
atomic   11  1  0   0.5
atomic   12  1  0   0.5
atomic   13  1  0   0.5
atomic   14  1  0   0.5
atomic   15  1  0   0.5
1gauss       0.446410960    1.388739334    0.034233711      0  0  0.5    0.0          C  -- C  
1gauss       0.209591646    2.035776903   -0.786070621      0  0  0.5    0.0          C  -- H  
1gauss       3.175309133    0.492734154   -0.937425415      0  0  0.5    0.0          C  -- H  
1gauss       2.244251792    1.031324875   -0.962163922      0  0  0.5    0.0          C  -- C  
1gauss       1.178929748    1.583921756   -0.908596365      0  0  0.5    0.0          C  -- C   
1gauss       1.129609593   -0.073455564    1.846021203      0  0  0.5    0.0          C  -- N  
1gauss       0.531155451   -0.463034401    2.583660341      0  0  0.5    0.0          N  -- H  
1gauss       1.306082459   -0.747722024    2.596706702      0  0  0.5    0.0          N  -- H  
1gauss       1.215168583    0.333902115    3.418305407      0  0  0.5    0.0          Au -- N  
atomic   21  2 -2   1.0
atomic   21  2 -1   1.0
atomic   21  2  0   1.0
atomic   21  2  1   1.0
atomic   21  2  2   1.0
1gauss       1.417241422    1.021268947    5.605100603      0  0  0.5    1.0          Au -- Au 
atomic   22  2 -2   1.0
atomic   22  2 -1   1.0
atomic   22  2  0   1.0
atomic   22  2  1   1.0
atomic   22  2  2   1.0
1gauss       1.417241422    1.021268947    8.105099617      0  0  0.5    1.0          Au -- Au 
atomic   23  2 -2   1.0
atomic   23  2 -1   1.0
atomic   23  2  0   1.0
atomic   23  2  1   1.0
atomic   23  2  2   1.0
1gauss       1.417241422    1.021268947   10.605098632      0  0  0.5    1.0          Au -- Au 
atomic   24  2 -2   1.0
atomic   24  2 -1   1.0
atomic   24  2  0   1.0
atomic   24  2  1   1.0
atomic   24  2  2   1.0
1gauss       1.417241422    1.021268947   13.105097646      0  0  0.5    1.0          Au -- Au 
atomic   25  2 -2   1.0
atomic   25  2 -1   1.0
atomic   25  2  0   1.0
atomic   25  2  1   1.0
atomic   25  2  2   1.0

