
AlN zincblend
NC - pbe
   &CONTROL
      calculation = 'nscf',
      restart_mode='from_scratch',
      prefix='zincblend',
      tprnfor = .true.,
      pseudo_dir='../pseudo/'
      outdir='./SCRATCH/'
      wf_collect = .TRUE.
   /
   &SYSTEM
      ibrav=4, 
      celldm(1)=5.88531
      celldm(3)=4.832646
      nat=12,
      ntyp=2,
      ecutwfc=60.0,
      occupations='fixed',
      nbnd = 24
      nosym = .TRUE.
   /
   &ELECTRONS
      electron_maxstep = 50,
      mixing_mode = 'plain',
      mixing_beta = 0.3,
      conv_thr =  1.0d-8,
   /   
ATOMIC_SPECIES
 N   14.01   N.pbe-gp.UPF
 Al  26.98   Al.pbe-rrkj.UPF
ATOMIC_POSITIONS (crystal)
Al      0.000000    0.000000    0.000000
Al     -0.333333   -0.666667    0.166667
N       0.000000    0.000000    0.124900
N      -0.333333   -0.666667    0.291667
Al      0.333333   -0.333333    0.333333
Al      0.000000    0.000000    0.500000
N       0.333333   -0.333333    0.458333
N       0.000000    0.000000    0.625000
Al     -0.333333   -0.666667    0.666667
Al      0.333333   -0.333333    0.833333
N      -0.333333   -0.666667    0.791667
N       0.333333   -0.333333    0.958333
K_POINTS (crystal)
  1000
   -0.500000000   -0.500000000   -0.500000000       0.00200000
   -0.400000000   -0.500000000   -0.500000000       0.00200000
   -0.300000000   -0.500000000   -0.500000000       0.00200000
   -0.200000000   -0.500000000   -0.500000000       0.00200000
   -0.100000000   -0.500000000   -0.500000000       0.00200000
    0.000000000   -0.500000000   -0.500000000       0.00200000
    0.100000000   -0.500000000   -0.500000000       0.00200000
    0.200000000   -0.500000000   -0.500000000       0.00200000
    0.300000000   -0.500000000   -0.500000000       0.00200000
    0.400000000   -0.500000000   -0.500000000       0.00200000
   -0.500000000   -0.400000000   -0.500000000       0.00200000
   -0.400000000   -0.400000000   -0.500000000       0.00200000
   -0.300000000   -0.400000000   -0.500000000       0.00200000
   -0.200000000   -0.400000000   -0.500000000       0.00200000
   -0.100000000   -0.400000000   -0.500000000       0.00200000
    0.000000000   -0.400000000   -0.500000000       0.00200000
    0.100000000   -0.400000000   -0.500000000       0.00200000
    0.200000000   -0.400000000   -0.500000000       0.00200000
    0.300000000   -0.400000000   -0.500000000       0.00200000
    0.400000000   -0.400000000   -0.500000000       0.00200000
   -0.500000000   -0.300000000   -0.500000000       0.00200000
   -0.400000000   -0.300000000   -0.500000000       0.00200000
   -0.300000000   -0.300000000   -0.500000000       0.00200000
   -0.200000000   -0.300000000   -0.500000000       0.00200000
   -0.100000000   -0.300000000   -0.500000000       0.00200000
    0.000000000   -0.300000000   -0.500000000       0.00200000
    0.100000000   -0.300000000   -0.500000000       0.00200000
    0.200000000   -0.300000000   -0.500000000       0.00200000
    0.300000000   -0.300000000   -0.500000000       0.00200000
    0.400000000   -0.300000000   -0.500000000       0.00200000
   -0.500000000   -0.200000000   -0.500000000       0.00200000
   -0.400000000   -0.200000000   -0.500000000       0.00200000
   -0.300000000   -0.200000000   -0.500000000       0.00200000
   -0.200000000   -0.200000000   -0.500000000       0.00200000
   -0.100000000   -0.200000000   -0.500000000       0.00200000
    0.000000000   -0.200000000   -0.500000000       0.00200000
    0.100000000   -0.200000000   -0.500000000       0.00200000
    0.200000000   -0.200000000   -0.500000000       0.00200000
    0.300000000   -0.200000000   -0.500000000       0.00200000
    0.400000000   -0.200000000   -0.500000000       0.00200000
   -0.500000000   -0.100000000   -0.500000000       0.00200000
   -0.400000000   -0.100000000   -0.500000000       0.00200000
   -0.300000000   -0.100000000   -0.500000000       0.00200000
   -0.200000000   -0.100000000   -0.500000000       0.00200000
   -0.100000000   -0.100000000   -0.500000000       0.00200000
    0.000000000   -0.100000000   -0.500000000       0.00200000
    0.100000000   -0.100000000   -0.500000000       0.00200000
    0.200000000   -0.100000000   -0.500000000       0.00200000
    0.300000000   -0.100000000   -0.500000000       0.00200000
    0.400000000   -0.100000000   -0.500000000       0.00200000
   -0.500000000    0.000000000   -0.500000000       0.00200000
   -0.400000000    0.000000000   -0.500000000       0.00200000
   -0.300000000    0.000000000   -0.500000000       0.00200000
   -0.200000000    0.000000000   -0.500000000       0.00200000
   -0.100000000    0.000000000   -0.500000000       0.00200000
    0.000000000    0.000000000   -0.500000000       0.00200000
    0.100000000    0.000000000   -0.500000000       0.00200000
    0.200000000    0.000000000   -0.500000000       0.00200000
    0.300000000    0.000000000   -0.500000000       0.00200000
    0.400000000    0.000000000   -0.500000000       0.00200000
   -0.500000000    0.100000000   -0.500000000       0.00200000
   -0.400000000    0.100000000   -0.500000000       0.00200000
   -0.300000000    0.100000000   -0.500000000       0.00200000
   -0.200000000    0.100000000   -0.500000000       0.00200000
   -0.100000000    0.100000000   -0.500000000       0.00200000
    0.000000000    0.100000000   -0.500000000       0.00200000
    0.100000000    0.100000000   -0.500000000       0.00200000
    0.200000000    0.100000000   -0.500000000       0.00200000
    0.300000000    0.100000000   -0.500000000       0.00200000
    0.400000000    0.100000000   -0.500000000       0.00200000
   -0.500000000    0.200000000   -0.500000000       0.00200000
   -0.400000000    0.200000000   -0.500000000       0.00200000
   -0.300000000    0.200000000   -0.500000000       0.00200000
   -0.200000000    0.200000000   -0.500000000       0.00200000
   -0.100000000    0.200000000   -0.500000000       0.00200000
    0.000000000    0.200000000   -0.500000000       0.00200000
    0.100000000    0.200000000   -0.500000000       0.00200000
    0.200000000    0.200000000   -0.500000000       0.00200000
    0.300000000    0.200000000   -0.500000000       0.00200000
    0.400000000    0.200000000   -0.500000000       0.00200000
   -0.500000000    0.300000000   -0.500000000       0.00200000
   -0.400000000    0.300000000   -0.500000000       0.00200000
   -0.300000000    0.300000000   -0.500000000       0.00200000
   -0.200000000    0.300000000   -0.500000000       0.00200000
   -0.100000000    0.300000000   -0.500000000       0.00200000
    0.000000000    0.300000000   -0.500000000       0.00200000
    0.100000000    0.300000000   -0.500000000       0.00200000
    0.200000000    0.300000000   -0.500000000       0.00200000
    0.300000000    0.300000000   -0.500000000       0.00200000
    0.400000000    0.300000000   -0.500000000       0.00200000
   -0.500000000    0.400000000   -0.500000000       0.00200000
   -0.400000000    0.400000000   -0.500000000       0.00200000
   -0.300000000    0.400000000   -0.500000000       0.00200000
   -0.200000000    0.400000000   -0.500000000       0.00200000
   -0.100000000    0.400000000   -0.500000000       0.00200000
    0.000000000    0.400000000   -0.500000000       0.00200000
    0.100000000    0.400000000   -0.500000000       0.00200000
    0.200000000    0.400000000   -0.500000000       0.00200000
    0.300000000    0.400000000   -0.500000000       0.00200000
    0.400000000    0.400000000   -0.500000000       0.00200000
   -0.500000000   -0.500000000   -0.400000000       0.00200000
   -0.400000000   -0.500000000   -0.400000000       0.00200000
   -0.300000000   -0.500000000   -0.400000000       0.00200000
   -0.200000000   -0.500000000   -0.400000000       0.00200000
   -0.100000000   -0.500000000   -0.400000000       0.00200000
    0.000000000   -0.500000000   -0.400000000       0.00200000
    0.100000000   -0.500000000   -0.400000000       0.00200000
    0.200000000   -0.500000000   -0.400000000       0.00200000
    0.300000000   -0.500000000   -0.400000000       0.00200000
    0.400000000   -0.500000000   -0.400000000       0.00200000
   -0.500000000   -0.400000000   -0.400000000       0.00200000
   -0.400000000   -0.400000000   -0.400000000       0.00200000
   -0.300000000   -0.400000000   -0.400000000       0.00200000
   -0.200000000   -0.400000000   -0.400000000       0.00200000
   -0.100000000   -0.400000000   -0.400000000       0.00200000
    0.000000000   -0.400000000   -0.400000000       0.00200000
    0.100000000   -0.400000000   -0.400000000       0.00200000
    0.200000000   -0.400000000   -0.400000000       0.00200000
    0.300000000   -0.400000000   -0.400000000       0.00200000
    0.400000000   -0.400000000   -0.400000000       0.00200000
   -0.500000000   -0.300000000   -0.400000000       0.00200000
   -0.400000000   -0.300000000   -0.400000000       0.00200000
   -0.300000000   -0.300000000   -0.400000000       0.00200000
   -0.200000000   -0.300000000   -0.400000000       0.00200000
   -0.100000000   -0.300000000   -0.400000000       0.00200000
    0.000000000   -0.300000000   -0.400000000       0.00200000
    0.100000000   -0.300000000   -0.400000000       0.00200000
    0.200000000   -0.300000000   -0.400000000       0.00200000
    0.300000000   -0.300000000   -0.400000000       0.00200000
    0.400000000   -0.300000000   -0.400000000       0.00200000
   -0.500000000   -0.200000000   -0.400000000       0.00200000
   -0.400000000   -0.200000000   -0.400000000       0.00200000
   -0.300000000   -0.200000000   -0.400000000       0.00200000
   -0.200000000   -0.200000000   -0.400000000       0.00200000
   -0.100000000   -0.200000000   -0.400000000       0.00200000
    0.000000000   -0.200000000   -0.400000000       0.00200000
    0.100000000   -0.200000000   -0.400000000       0.00200000
    0.200000000   -0.200000000   -0.400000000       0.00200000
    0.300000000   -0.200000000   -0.400000000       0.00200000
    0.400000000   -0.200000000   -0.400000000       0.00200000
   -0.500000000   -0.100000000   -0.400000000       0.00200000
   -0.400000000   -0.100000000   -0.400000000       0.00200000
   -0.300000000   -0.100000000   -0.400000000       0.00200000
   -0.200000000   -0.100000000   -0.400000000       0.00200000
   -0.100000000   -0.100000000   -0.400000000       0.00200000
    0.000000000   -0.100000000   -0.400000000       0.00200000
    0.100000000   -0.100000000   -0.400000000       0.00200000
    0.200000000   -0.100000000   -0.400000000       0.00200000
    0.300000000   -0.100000000   -0.400000000       0.00200000
    0.400000000   -0.100000000   -0.400000000       0.00200000
   -0.500000000    0.000000000   -0.400000000       0.00200000
   -0.400000000    0.000000000   -0.400000000       0.00200000
   -0.300000000    0.000000000   -0.400000000       0.00200000
   -0.200000000    0.000000000   -0.400000000       0.00200000
   -0.100000000    0.000000000   -0.400000000       0.00200000
    0.000000000    0.000000000   -0.400000000       0.00200000
    0.100000000    0.000000000   -0.400000000       0.00200000
    0.200000000    0.000000000   -0.400000000       0.00200000
    0.300000000    0.000000000   -0.400000000       0.00200000
    0.400000000    0.000000000   -0.400000000       0.00200000
   -0.500000000    0.100000000   -0.400000000       0.00200000
   -0.400000000    0.100000000   -0.400000000       0.00200000
   -0.300000000    0.100000000   -0.400000000       0.00200000
   -0.200000000    0.100000000   -0.400000000       0.00200000
   -0.100000000    0.100000000   -0.400000000       0.00200000
    0.000000000    0.100000000   -0.400000000       0.00200000
    0.100000000    0.100000000   -0.400000000       0.00200000
    0.200000000    0.100000000   -0.400000000       0.00200000
    0.300000000    0.100000000   -0.400000000       0.00200000
    0.400000000    0.100000000   -0.400000000       0.00200000
   -0.500000000    0.200000000   -0.400000000       0.00200000
   -0.400000000    0.200000000   -0.400000000       0.00200000
   -0.300000000    0.200000000   -0.400000000       0.00200000
   -0.200000000    0.200000000   -0.400000000       0.00200000
   -0.100000000    0.200000000   -0.400000000       0.00200000
    0.000000000    0.200000000   -0.400000000       0.00200000
    0.100000000    0.200000000   -0.400000000       0.00200000
    0.200000000    0.200000000   -0.400000000       0.00200000
    0.300000000    0.200000000   -0.400000000       0.00200000
    0.400000000    0.200000000   -0.400000000       0.00200000
   -0.500000000    0.300000000   -0.400000000       0.00200000
   -0.400000000    0.300000000   -0.400000000       0.00200000
   -0.300000000    0.300000000   -0.400000000       0.00200000
   -0.200000000    0.300000000   -0.400000000       0.00200000
   -0.100000000    0.300000000   -0.400000000       0.00200000
    0.000000000    0.300000000   -0.400000000       0.00200000
    0.100000000    0.300000000   -0.400000000       0.00200000
    0.200000000    0.300000000   -0.400000000       0.00200000
    0.300000000    0.300000000   -0.400000000       0.00200000
    0.400000000    0.300000000   -0.400000000       0.00200000
   -0.500000000    0.400000000   -0.400000000       0.00200000
   -0.400000000    0.400000000   -0.400000000       0.00200000
   -0.300000000    0.400000000   -0.400000000       0.00200000
   -0.200000000    0.400000000   -0.400000000       0.00200000
   -0.100000000    0.400000000   -0.400000000       0.00200000
    0.000000000    0.400000000   -0.400000000       0.00200000
    0.100000000    0.400000000   -0.400000000       0.00200000
    0.200000000    0.400000000   -0.400000000       0.00200000
    0.300000000    0.400000000   -0.400000000       0.00200000
    0.400000000    0.400000000   -0.400000000       0.00200000
   -0.500000000   -0.500000000   -0.300000000       0.00200000
   -0.400000000   -0.500000000   -0.300000000       0.00200000
   -0.300000000   -0.500000000   -0.300000000       0.00200000
   -0.200000000   -0.500000000   -0.300000000       0.00200000
   -0.100000000   -0.500000000   -0.300000000       0.00200000
    0.000000000   -0.500000000   -0.300000000       0.00200000
    0.100000000   -0.500000000   -0.300000000       0.00200000
    0.200000000   -0.500000000   -0.300000000       0.00200000
    0.300000000   -0.500000000   -0.300000000       0.00200000
    0.400000000   -0.500000000   -0.300000000       0.00200000
   -0.500000000   -0.400000000   -0.300000000       0.00200000
   -0.400000000   -0.400000000   -0.300000000       0.00200000
   -0.300000000   -0.400000000   -0.300000000       0.00200000
   -0.200000000   -0.400000000   -0.300000000       0.00200000
   -0.100000000   -0.400000000   -0.300000000       0.00200000
    0.000000000   -0.400000000   -0.300000000       0.00200000
    0.100000000   -0.400000000   -0.300000000       0.00200000
    0.200000000   -0.400000000   -0.300000000       0.00200000
    0.300000000   -0.400000000   -0.300000000       0.00200000
    0.400000000   -0.400000000   -0.300000000       0.00200000
   -0.500000000   -0.300000000   -0.300000000       0.00200000
   -0.400000000   -0.300000000   -0.300000000       0.00200000
   -0.300000000   -0.300000000   -0.300000000       0.00200000
   -0.200000000   -0.300000000   -0.300000000       0.00200000
   -0.100000000   -0.300000000   -0.300000000       0.00200000
    0.000000000   -0.300000000   -0.300000000       0.00200000
    0.100000000   -0.300000000   -0.300000000       0.00200000
    0.200000000   -0.300000000   -0.300000000       0.00200000
    0.300000000   -0.300000000   -0.300000000       0.00200000
    0.400000000   -0.300000000   -0.300000000       0.00200000
   -0.500000000   -0.200000000   -0.300000000       0.00200000
   -0.400000000   -0.200000000   -0.300000000       0.00200000
   -0.300000000   -0.200000000   -0.300000000       0.00200000
   -0.200000000   -0.200000000   -0.300000000       0.00200000
   -0.100000000   -0.200000000   -0.300000000       0.00200000
    0.000000000   -0.200000000   -0.300000000       0.00200000
    0.100000000   -0.200000000   -0.300000000       0.00200000
    0.200000000   -0.200000000   -0.300000000       0.00200000
    0.300000000   -0.200000000   -0.300000000       0.00200000
    0.400000000   -0.200000000   -0.300000000       0.00200000
   -0.500000000   -0.100000000   -0.300000000       0.00200000
   -0.400000000   -0.100000000   -0.300000000       0.00200000
   -0.300000000   -0.100000000   -0.300000000       0.00200000
   -0.200000000   -0.100000000   -0.300000000       0.00200000
   -0.100000000   -0.100000000   -0.300000000       0.00200000
    0.000000000   -0.100000000   -0.300000000       0.00200000
    0.100000000   -0.100000000   -0.300000000       0.00200000
    0.200000000   -0.100000000   -0.300000000       0.00200000
    0.300000000   -0.100000000   -0.300000000       0.00200000
    0.400000000   -0.100000000   -0.300000000       0.00200000
   -0.500000000    0.000000000   -0.300000000       0.00200000
   -0.400000000    0.000000000   -0.300000000       0.00200000
   -0.300000000    0.000000000   -0.300000000       0.00200000
   -0.200000000    0.000000000   -0.300000000       0.00200000
   -0.100000000    0.000000000   -0.300000000       0.00200000
    0.000000000    0.000000000   -0.300000000       0.00200000
    0.100000000    0.000000000   -0.300000000       0.00200000
    0.200000000    0.000000000   -0.300000000       0.00200000
    0.300000000    0.000000000   -0.300000000       0.00200000
    0.400000000    0.000000000   -0.300000000       0.00200000
   -0.500000000    0.100000000   -0.300000000       0.00200000
   -0.400000000    0.100000000   -0.300000000       0.00200000
   -0.300000000    0.100000000   -0.300000000       0.00200000
   -0.200000000    0.100000000   -0.300000000       0.00200000
   -0.100000000    0.100000000   -0.300000000       0.00200000
    0.000000000    0.100000000   -0.300000000       0.00200000
    0.100000000    0.100000000   -0.300000000       0.00200000
    0.200000000    0.100000000   -0.300000000       0.00200000
    0.300000000    0.100000000   -0.300000000       0.00200000
    0.400000000    0.100000000   -0.300000000       0.00200000
   -0.500000000    0.200000000   -0.300000000       0.00200000
   -0.400000000    0.200000000   -0.300000000       0.00200000
   -0.300000000    0.200000000   -0.300000000       0.00200000
   -0.200000000    0.200000000   -0.300000000       0.00200000
   -0.100000000    0.200000000   -0.300000000       0.00200000
    0.000000000    0.200000000   -0.300000000       0.00200000
    0.100000000    0.200000000   -0.300000000       0.00200000
    0.200000000    0.200000000   -0.300000000       0.00200000
    0.300000000    0.200000000   -0.300000000       0.00200000
    0.400000000    0.200000000   -0.300000000       0.00200000
   -0.500000000    0.300000000   -0.300000000       0.00200000
   -0.400000000    0.300000000   -0.300000000       0.00200000
   -0.300000000    0.300000000   -0.300000000       0.00200000
   -0.200000000    0.300000000   -0.300000000       0.00200000
   -0.100000000    0.300000000   -0.300000000       0.00200000
    0.000000000    0.300000000   -0.300000000       0.00200000
    0.100000000    0.300000000   -0.300000000       0.00200000
    0.200000000    0.300000000   -0.300000000       0.00200000
    0.300000000    0.300000000   -0.300000000       0.00200000
    0.400000000    0.300000000   -0.300000000       0.00200000
   -0.500000000    0.400000000   -0.300000000       0.00200000
   -0.400000000    0.400000000   -0.300000000       0.00200000
   -0.300000000    0.400000000   -0.300000000       0.00200000
   -0.200000000    0.400000000   -0.300000000       0.00200000
   -0.100000000    0.400000000   -0.300000000       0.00200000
    0.000000000    0.400000000   -0.300000000       0.00200000
    0.100000000    0.400000000   -0.300000000       0.00200000
    0.200000000    0.400000000   -0.300000000       0.00200000
    0.300000000    0.400000000   -0.300000000       0.00200000
    0.400000000    0.400000000   -0.300000000       0.00200000
   -0.500000000   -0.500000000   -0.200000000       0.00200000
   -0.400000000   -0.500000000   -0.200000000       0.00200000
   -0.300000000   -0.500000000   -0.200000000       0.00200000
   -0.200000000   -0.500000000   -0.200000000       0.00200000
   -0.100000000   -0.500000000   -0.200000000       0.00200000
    0.000000000   -0.500000000   -0.200000000       0.00200000
    0.100000000   -0.500000000   -0.200000000       0.00200000
    0.200000000   -0.500000000   -0.200000000       0.00200000
    0.300000000   -0.500000000   -0.200000000       0.00200000
    0.400000000   -0.500000000   -0.200000000       0.00200000
   -0.500000000   -0.400000000   -0.200000000       0.00200000
   -0.400000000   -0.400000000   -0.200000000       0.00200000
   -0.300000000   -0.400000000   -0.200000000       0.00200000
   -0.200000000   -0.400000000   -0.200000000       0.00200000
   -0.100000000   -0.400000000   -0.200000000       0.00200000
    0.000000000   -0.400000000   -0.200000000       0.00200000
    0.100000000   -0.400000000   -0.200000000       0.00200000
    0.200000000   -0.400000000   -0.200000000       0.00200000
    0.300000000   -0.400000000   -0.200000000       0.00200000
    0.400000000   -0.400000000   -0.200000000       0.00200000
   -0.500000000   -0.300000000   -0.200000000       0.00200000
   -0.400000000   -0.300000000   -0.200000000       0.00200000
   -0.300000000   -0.300000000   -0.200000000       0.00200000
   -0.200000000   -0.300000000   -0.200000000       0.00200000
   -0.100000000   -0.300000000   -0.200000000       0.00200000
    0.000000000   -0.300000000   -0.200000000       0.00200000
    0.100000000   -0.300000000   -0.200000000       0.00200000
    0.200000000   -0.300000000   -0.200000000       0.00200000
    0.300000000   -0.300000000   -0.200000000       0.00200000
    0.400000000   -0.300000000   -0.200000000       0.00200000
   -0.500000000   -0.200000000   -0.200000000       0.00200000
   -0.400000000   -0.200000000   -0.200000000       0.00200000
   -0.300000000   -0.200000000   -0.200000000       0.00200000
   -0.200000000   -0.200000000   -0.200000000       0.00200000
   -0.100000000   -0.200000000   -0.200000000       0.00200000
    0.000000000   -0.200000000   -0.200000000       0.00200000
    0.100000000   -0.200000000   -0.200000000       0.00200000
    0.200000000   -0.200000000   -0.200000000       0.00200000
    0.300000000   -0.200000000   -0.200000000       0.00200000
    0.400000000   -0.200000000   -0.200000000       0.00200000
   -0.500000000   -0.100000000   -0.200000000       0.00200000
   -0.400000000   -0.100000000   -0.200000000       0.00200000
   -0.300000000   -0.100000000   -0.200000000       0.00200000
   -0.200000000   -0.100000000   -0.200000000       0.00200000
   -0.100000000   -0.100000000   -0.200000000       0.00200000
    0.000000000   -0.100000000   -0.200000000       0.00200000
    0.100000000   -0.100000000   -0.200000000       0.00200000
    0.200000000   -0.100000000   -0.200000000       0.00200000
    0.300000000   -0.100000000   -0.200000000       0.00200000
    0.400000000   -0.100000000   -0.200000000       0.00200000
   -0.500000000    0.000000000   -0.200000000       0.00200000
   -0.400000000    0.000000000   -0.200000000       0.00200000
   -0.300000000    0.000000000   -0.200000000       0.00200000
   -0.200000000    0.000000000   -0.200000000       0.00200000
   -0.100000000    0.000000000   -0.200000000       0.00200000
    0.000000000    0.000000000   -0.200000000       0.00200000
    0.100000000    0.000000000   -0.200000000       0.00200000
    0.200000000    0.000000000   -0.200000000       0.00200000
    0.300000000    0.000000000   -0.200000000       0.00200000
    0.400000000    0.000000000   -0.200000000       0.00200000
   -0.500000000    0.100000000   -0.200000000       0.00200000
   -0.400000000    0.100000000   -0.200000000       0.00200000
   -0.300000000    0.100000000   -0.200000000       0.00200000
   -0.200000000    0.100000000   -0.200000000       0.00200000
   -0.100000000    0.100000000   -0.200000000       0.00200000
    0.000000000    0.100000000   -0.200000000       0.00200000
    0.100000000    0.100000000   -0.200000000       0.00200000
    0.200000000    0.100000000   -0.200000000       0.00200000
    0.300000000    0.100000000   -0.200000000       0.00200000
    0.400000000    0.100000000   -0.200000000       0.00200000
   -0.500000000    0.200000000   -0.200000000       0.00200000
   -0.400000000    0.200000000   -0.200000000       0.00200000
   -0.300000000    0.200000000   -0.200000000       0.00200000
   -0.200000000    0.200000000   -0.200000000       0.00200000
   -0.100000000    0.200000000   -0.200000000       0.00200000
    0.000000000    0.200000000   -0.200000000       0.00200000
    0.100000000    0.200000000   -0.200000000       0.00200000
    0.200000000    0.200000000   -0.200000000       0.00200000
    0.300000000    0.200000000   -0.200000000       0.00200000
    0.400000000    0.200000000   -0.200000000       0.00200000
   -0.500000000    0.300000000   -0.200000000       0.00200000
   -0.400000000    0.300000000   -0.200000000       0.00200000
   -0.300000000    0.300000000   -0.200000000       0.00200000
   -0.200000000    0.300000000   -0.200000000       0.00200000
   -0.100000000    0.300000000   -0.200000000       0.00200000
    0.000000000    0.300000000   -0.200000000       0.00200000
    0.100000000    0.300000000   -0.200000000       0.00200000
    0.200000000    0.300000000   -0.200000000       0.00200000
    0.300000000    0.300000000   -0.200000000       0.00200000
    0.400000000    0.300000000   -0.200000000       0.00200000
   -0.500000000    0.400000000   -0.200000000       0.00200000
   -0.400000000    0.400000000   -0.200000000       0.00200000
   -0.300000000    0.400000000   -0.200000000       0.00200000
   -0.200000000    0.400000000   -0.200000000       0.00200000
   -0.100000000    0.400000000   -0.200000000       0.00200000
    0.000000000    0.400000000   -0.200000000       0.00200000
    0.100000000    0.400000000   -0.200000000       0.00200000
    0.200000000    0.400000000   -0.200000000       0.00200000
    0.300000000    0.400000000   -0.200000000       0.00200000
    0.400000000    0.400000000   -0.200000000       0.00200000
   -0.500000000   -0.500000000   -0.100000000       0.00200000
   -0.400000000   -0.500000000   -0.100000000       0.00200000
   -0.300000000   -0.500000000   -0.100000000       0.00200000
   -0.200000000   -0.500000000   -0.100000000       0.00200000
   -0.100000000   -0.500000000   -0.100000000       0.00200000
    0.000000000   -0.500000000   -0.100000000       0.00200000
    0.100000000   -0.500000000   -0.100000000       0.00200000
    0.200000000   -0.500000000   -0.100000000       0.00200000
    0.300000000   -0.500000000   -0.100000000       0.00200000
    0.400000000   -0.500000000   -0.100000000       0.00200000
   -0.500000000   -0.400000000   -0.100000000       0.00200000
   -0.400000000   -0.400000000   -0.100000000       0.00200000
   -0.300000000   -0.400000000   -0.100000000       0.00200000
   -0.200000000   -0.400000000   -0.100000000       0.00200000
   -0.100000000   -0.400000000   -0.100000000       0.00200000
    0.000000000   -0.400000000   -0.100000000       0.00200000
    0.100000000   -0.400000000   -0.100000000       0.00200000
    0.200000000   -0.400000000   -0.100000000       0.00200000
    0.300000000   -0.400000000   -0.100000000       0.00200000
    0.400000000   -0.400000000   -0.100000000       0.00200000
   -0.500000000   -0.300000000   -0.100000000       0.00200000
   -0.400000000   -0.300000000   -0.100000000       0.00200000
   -0.300000000   -0.300000000   -0.100000000       0.00200000
   -0.200000000   -0.300000000   -0.100000000       0.00200000
   -0.100000000   -0.300000000   -0.100000000       0.00200000
    0.000000000   -0.300000000   -0.100000000       0.00200000
    0.100000000   -0.300000000   -0.100000000       0.00200000
    0.200000000   -0.300000000   -0.100000000       0.00200000
    0.300000000   -0.300000000   -0.100000000       0.00200000
    0.400000000   -0.300000000   -0.100000000       0.00200000
   -0.500000000   -0.200000000   -0.100000000       0.00200000
   -0.400000000   -0.200000000   -0.100000000       0.00200000
   -0.300000000   -0.200000000   -0.100000000       0.00200000
   -0.200000000   -0.200000000   -0.100000000       0.00200000
   -0.100000000   -0.200000000   -0.100000000       0.00200000
    0.000000000   -0.200000000   -0.100000000       0.00200000
    0.100000000   -0.200000000   -0.100000000       0.00200000
    0.200000000   -0.200000000   -0.100000000       0.00200000
    0.300000000   -0.200000000   -0.100000000       0.00200000
    0.400000000   -0.200000000   -0.100000000       0.00200000
   -0.500000000   -0.100000000   -0.100000000       0.00200000
   -0.400000000   -0.100000000   -0.100000000       0.00200000
   -0.300000000   -0.100000000   -0.100000000       0.00200000
   -0.200000000   -0.100000000   -0.100000000       0.00200000
   -0.100000000   -0.100000000   -0.100000000       0.00200000
    0.000000000   -0.100000000   -0.100000000       0.00200000
    0.100000000   -0.100000000   -0.100000000       0.00200000
    0.200000000   -0.100000000   -0.100000000       0.00200000
    0.300000000   -0.100000000   -0.100000000       0.00200000
    0.400000000   -0.100000000   -0.100000000       0.00200000
   -0.500000000    0.000000000   -0.100000000       0.00200000
   -0.400000000    0.000000000   -0.100000000       0.00200000
   -0.300000000    0.000000000   -0.100000000       0.00200000
   -0.200000000    0.000000000   -0.100000000       0.00200000
   -0.100000000    0.000000000   -0.100000000       0.00200000
    0.000000000    0.000000000   -0.100000000       0.00200000
    0.100000000    0.000000000   -0.100000000       0.00200000