
 &INPUT
   prefix = 'wurtzite_US'
   postfix = '_WanT'
   output_fmt = 'xsf'
   datatype = 'modulus'
   locate_wf = .TRUE.
   wann = '9-12'
 /

