
&INPUTPP
  prefix='wurtzite'
  pseudo_dir = '../pseudo/'
  outdir = './SCRATCH/'
  psfile(1) = 'N.pbe-gp.UPF'
  psfile(2) = 'Al.pbe-rrkj.UPF'
  single_file = .FALSE.
  ascii = .FALSE.
/


