
AlN zincblend
NC - pbe
   &CONTROL
      calculation = 'scf',
      restart_mode='from_scratch',
      prefix='zincblend',
      pseudo_dir='../pseudo/'
      outdir='./SCRATCH/'
      tprnfor = .true.,
      verbosity = 'high'
   /
   &SYSTEM
      ibrav=4, 
      celldm(1)=5.858531
      celldm(3)=4.899
      nat=12,
      ntyp=2,
      ecutwfc=50.0,
      occupations='fixed',
   /
   &ELECTRONS
      electron_maxstep = 50,
      mixing_mode = 'plain',
      mixing_beta = 0.3,
      conv_thr =  1.0d-8,
   /   
ATOMIC_SPECIES
 N   14.01   N.pbe-gp.UPF
 Al  26.98   Al.pbe-rrkj.UPF
ATOMIC_POSITIONS (crystal)
Al      0.000000    0.000000    0.000000
Al     -0.333333   -0.666667    0.166667
N       0.000000    0.000000    0.125000
N      -0.333333   -0.666667    0.291667
Al      0.333333   -0.333333    0.333333
Al      0.000000    0.000000    0.500000
N       0.333333   -0.333333    0.458333
N       0.000000    0.000000    0.625000
Al     -0.333333   -0.666667    0.666667
Al      0.333333   -0.333333    0.833333
N      -0.333333   -0.666667    0.791667
N       0.333333   -0.333333    0.958333
K_POINTS {automatic}
4  4  2     1  1  1

