
AlN wurzite
US - pbe
   &CONTROL
      calculation = 'scf',
      restart_mode='from_scratch',
      prefix='wurtzite_US',
      nstep=2000,
      tprnfor = .true.,
   /
   &SYSTEM
      ibrav=4, 
      celldm(1)=5.8748
      celldm(3)=4.8760724,
      nat=12,
      ntyp=2,
      ecutwfc=25.0,
      ecutrho=200.0,
      occupations='fixed',
   /
   &ELECTRONS
      electron_maxstep = 50,
      mixing_mode = 'plain',
      mixing_beta = 0.3,
      conv_thr =  1.0d-6,
   /
ATOMIC_SPECIES
 N   14.01   N.pbe-van_bm.UPF
 Al  26.98   Al.pbe-n-van.UPF
ATOMIC_POSITIONS (crystal)
Al       0.000000000   0.000000000  -0.000700877
Al       0.333333000  -0.333333000   0.165965566
N        0.000000000   0.000000000   0.125701629
N        0.333333000  -0.333333000   0.292367142
Al       0.000000000   0.000000000   0.332632491
Al       0.333333000  -0.333333000   0.499298780
N        0.000000000   0.000000000   0.459034777
N        0.333333000  -0.333333000   0.625700540
Al       0.000000000   0.000000000   0.665965930
Al       0.333333000  -0.333333000   0.832632151
N        0.000000000   0.000000000   0.792368183
N        0.333333000  -0.333333000   0.959033688
K_POINTS {automatic}   
10  10  4     1  1  1 

