
&CONTROL
   prefix = 'zincblend_US'
   postfix = '_WanT'
   work_dir = './SCRATCH/'
/

&SUBSPACE
   dimwann = 24
/

&LOCALIZATION
   maxiter0_wan = 100
   maxiter1_wan = 500
/

WANNIER_CENTERS {crystal}
1gauss       0.000000    0.000000    0.062500  0  0  0.5
1gauss       0.166667   -0.166667   -0.020833  0  0  0.5
1gauss       0.166667    0.333333   -0.020833  0  0  0.5
1gauss      -0.333333   -0.166667   -0.020833  0  0  0.5
1gauss      -0.333333   -0.666667    0.229167  0  0  0.5
1gauss      -0.166667   -0.833333    0.145833  0  0  0.5
1gauss      -0.166667   -0.333333    0.145833  0  0  0.5
1gauss      -0.666667   -0.833333    0.145833  0  0  0.5
1gauss       0.333333   -0.333333    0.395833  0  0  0.5
1gauss       0.500000   -0.500000    0.312500  0  0  0.5
1gauss       0.500000    0.000000    0.312500  0  0  0.5
1gauss       0.000000   -0.500000    0.312500  0  0  0.5
1gauss       0.000000    0.000000    0.562500  0  0  0.5
1gauss       0.166667   -0.166667    0.479167  0  0  0.5
1gauss       0.166667    0.333333    0.479167  0  0  0.5
1gauss      -0.333333   -0.166667    0.479167  0  0  0.5
1gauss      -0.333333   -0.666667    0.729167  0  0  0.5
1gauss      -0.166667   -0.833333    0.645833  0  0  0.5
1gauss      -0.166667   -0.333333    0.645833  0  0  0.5
1gauss      -0.666667   -0.833333    0.645833  0  0  0.5
1gauss       0.333333   -0.333333    0.895833  0  0  0.5
1gauss       0.500000   -0.500000    0.812499  0  0  0.5
1gauss       0.500000    0.000000    0.812499  0  0  0.5
1gauss       0.000000   -0.500000    0.812499  0  0  0.5


