
 &INPUT
   prefix = 'nichain'
   postfix = '_WanT_UP'
   work_dir = './'
   nkpts_in  = 2
   nkpts_max = 100
   unitary_thr = 1.d-6
   spin_component="UP"
   
 /
G
0.0 0.0 0.0
Z
0.0 0.0 0.5
