
 &INPUT
   prefix = 'nichain'
   postfix = '_WanT_UP'
   work_dir = './SCRATCH/'
   datatype = 'modulus'
   wann = '1,4'
   r3min = -1.0
   r3max =  1.0
 /
