Infinite Nichel Chain USPP, Spin Polarization
1 atom/cell, Lattice Parameter = 2.5 Ang
   &CONTROL
      calculation = 'scf',
      restart_mode='from_scratch',
      verbosity='default',
      prefix='nichain',
      nstep=100,
      tstress = .false.,
      tprnfor = .true.,
      pseudo_dir = '../pseudo/',
      outdir = './SCRATCH/'
   /
   &SYSTEM
      ibrav=8, 
      celldm(1)=20.0, 
      celldm(2)=1.0,
      celldm(3)=0.236216,
      nat=1, 
      ntyp=1,
      ecutwfc=20.0,
      ecutrho=200.0,
      occupations='smearing',
      smearing='gaussian',
      degauss=0.01,
      nbnd=10
      nspin = 2
      starting_magnetization(1) = 0.5
   /
   &ELECTRONS
      electron_maxstep = 100,
      mixing_mode = 'plain',
      mixing_beta = 0.3,
      conv_thr =  1.0d-8,
   /
ATOMIC_SPECIES
  Ni   58.69   Ni.pz-nd-rrkjus.UPF
ATOMIC_POSITIONS {crystal}
Ni        0.00000     0.00000    0.50000
K_POINTS {automatic}
  1 1 8  0 0 1

