
&CONTROL
   prefix = 'nichain'
   postfix = '_WanT_DW'
   work_dir = './'
/

&SUBSPACE
   dimwann = 6   
   win_min = -12.0
   win_max =  0.0
   subspace_init = 'center_projections'
   spin_component = 'DOWN'
/

&LOCALIZATION
   maxiter0_wan = 100
   maxiter1_wan = 1500
   ncg = 5    
   ordering_mode = 'none'
/

WANNIER_CENTERS {crystal}
1gauss   0.000000    0.000000     0.500000  0  0   0.5
1gauss   0.000000    0.000000     0.500000  2 -2   0.5
1gauss   0.000000    0.000000     0.500000  2 -1   0.5
1gauss   0.000000    0.000000     0.500000  2  0   0.5
1gauss   0.000000    0.000000     0.500000  2  1   0.5
1gauss   0.000000    0.000000     0.500000  2  2   0.5

