 &INPUT
   prefix = 'cobalt_US'
   postfix = '_WanT'
   work_dir = './SCRATCH'
   nkpts_in  = 6
   nkpts_max = 200
 /
G    0.000  0.000  0.000
X    0.500  0.500  0.000
W    0.500  0.750  0.250
L    0.000  0.500  0.000
G    0.000  0.000  0.000
K    0.375  0.750  0.375

