&INPUTPP
  prefix='copper'
  outdir='./'
  pseudo_dir = './'
  psfile(1) = 'Cu.pw91-cpi.UPF'
  single_file = .FALSE.
  ascii = .FALSE.
/
