&INPUTPP
  prefix='copper_US'
  outdir='./'
  pseudo_dir = './'
  psfile(1) = 'Cu.pbe-d-rrkjus.UPF'
  single_file = .FALSE.
  ascii = .FALSE.
/
