Cobalt FCC bulk PBE USPP
3d in valence
 &CONTROL
    calculation = 'scf'
    restart_mode='from_scratch',
    prefix='cobalt_US',
    tprnfor = .FALSE.
    pseudo_dir = './'
 /
 &SYSTEM
      ibrav=2,
      celldm(1)=6.9678
      nat=1,
      ntyp=1,
      ecutwfc=25,
      ecutrho=300,
      occupations='smearing',
      smearing='gaussian',
      degauss=0.006,
 /
 &ELECTRONS
    electron_maxstep = 50,
    mixing_mode = 'plain'
    mixing_beta = 0.3
    conv_thr =  1.0d-8
 /
ATOMIC_SPECIES
 Co  58.9332  Co.pbe-nd-rrkjus.UPF
ATOMIC_POSITIONS (angstrom)
Co   0.00000000      0.00000000      0.00000000
K_POINTS (automatic)
12 12 12    1 1 1




