
&CONTROL
   prefix = 'copper_US'
   postfix = '_WanT'
   work_dir = './'
/

&SUBSPACE
   win_max = 20.04
   froz_max = 13.0588
   dimwann = 6
   maxiter_dis = 400
/

&LOCALIZATION
   maxiter0_wan = 1
   maxiter1_wan = 40000
   alpha1_wan = 0.3
   ncg = 5    
/

WANNIER_CENTERS
 atomic  1     0  0
 atomic  1     2  2
 atomic  1     2  1
 atomic  1     2  0
 atomic  1     2 -1
 atomic  1     2 -2

