
&INPUTPP
  prefix='wurtzite_US'
  pseudo_dir = './'
  psfile(1) = 'N.pbe-van_bm.UPF'
  psfile(2) = 'Al.pbe-n-van.UPF'
  single_file = .FALSE.
  ascii = .FALSE.
/
EOF

