
 &INPUT
   prefix    = 'gold-o_DS2'
   postfix   = '_WanT'
   work_dir  = './SCRATCH'
   fileout   = 'bands_Au_abi.dat'
!   fileout   = 'bands_Au_abi_NN.dat'
!   ircut(3) = 1
   nkpts_in  = 2
   nkpts_max = 100
 /
G   0.0 0.0 0.0
Z   0.0 0.0 0.5
