&inputpp
  prefix='cobalt_US'
  outdir='./SCRATCH/'
  pseudo_dir = '../pseudo'
  psfile(1) = 'Co.pbe-nd-rrkjus.UPF'
  single_file = .FALSE.
  ascii = .FALSE.
/
