
AlN wurzite
US - pbe
   &CONTROL
      calculation = 'nscf',
      restart_mode='from_scratch',
      prefix='wurtzite_US',
      nstep=2000,
      tprnfor = .true.,
      pseudo_dir='../pseudo/',
      outdir='./SCRATCH/',
      wf_collect = .TRUE.
   /
   &SYSTEM
      ibrav=4, 
      celldm(1)=5.88531
      celldm(3)=4.832646
      nat=12,
      ntyp=2,
      ecutwfc=25.0,
      ecutrho=200.0,
      occupations='fixed',
      nbnd = 24
      nosym = .TRUE.
   /
   &ELECTRONS
      electron_maxstep = 50,
      mixing_mode = 'plain',
      mixing_beta = 0.3,
      conv_thr =  1.0d-8,
   /
ATOMIC_SPECIES
 N   14.01   N.pbe-van_bm.UPF
 Al  26.98   Al.pbe-n-van.UPF
ATOMIC_POSITIONS (crystal)
Al      0.00000000    0.00000000   -0.00094978
Al      0.33333300   -0.33333300    0.16571689
N       0.00000000    0.00000000    0.12594978
N       0.33333300   -0.33333300    0.29261645
Al      0.00000000    0.00000000    0.33238356
Al      0.33333300   -0.33333300    0.49905023
N       0.00000000    0.00000000    0.45928312
N       0.33333300   -0.33333300    0.62594979
Al      0.00000000    0.00000000    0.66571691
Al      0.33333300   -0.33333300    0.83238357
N       0.00000000    0.00000000    0.79261647
N       0.33333300   -0.33333300    0.95928313
K_POINTS (crystal)
  1000
   -0.500000000   -0.500000000   -0.500000000       0.00200000
   -0.400000000   -0.500000000   -0.500000000       0.00200000
   -0.300000000   -0.500000000   -0.500000000       0.00200000
   -0.200000000   -0.500000000   -0.500000000       0.00200000
   -0.100000000   -0.500000000   -0.500000000       0.00200000
    0.000000000   -0.500000000   -0.500000000       0.00200000
    0.100000000   -0.500000000   -0.500000000       0.00200000
    0.200000000   -0.500000000   -0.500000000       0.00200000
    0.300000000   -0.500000000   -0.500000000       0.00200000
    0.400000000   -0.500000000   -0.500000000       0.00200000
   -0.500000000   -0.400000000   -0.500000000       0.00200000
   -0.400000000   -0.400000000   -0.500000000       0.00200000
   -0.300000000   -0.400000000   -0.500000000       0.00200000
   -0.200000000   -0.400000000   -0.500000000       0.00200000
   -0.100000000   -0.400000000   -0.500000000       0.00200000
    0.000000000   -0.400000000   -0.500000000       0.00200000
    0.100000000   -0.400000000   -0.500000000       0.00200000
    0.200000000   -0.400000000   -0.500000000       0.00200000
    0.300000000   -0.400000000   -0.500000000       0.00200000
    0.400000000   -0.400000000   -0.500000000       0.00200000
   -0.500000000   -0.300000000   -0.500000000       0.00200000
   -0.400000000   -0.300000000   -0.500000000       0.00200000
   -0.300000000   -0.300000000   -0.500000000       0.00200000
   -0.200000000   -0.300000000   -0.500000000       0.00200000
   -0.100000000   -0.300000000   -0.500000000       0.00200000
    0.000000000   -0.300000000   -0.500000000       0.00200000
    0.100000000   -0.300000000   -0.500000000       0.00200000
    0.200000000   -0.300000000   -0.500000000       0.00200000
    0.300000000   -0.300000000   -0.500000000       0.00200000
    0.400000000   -0.300000000   -0.500000000       0.00200000
   -0.500000000   -0.200000000   -0.500000000       0.00200000
   -0.400000000   -0.200000000   -0.500000000       0.00200000
   -0.300000000   -0.200000000   -0.500000000       0.00200000
   -0.200000000   -0.200000000   -0.500000000       0.00200000
   -0.100000000   -0.200000000   -0.500000000       0.00200000
    0.000000000   -0.200000000   -0.500000000       0.00200000
    0.100000000   -0.200000000   -0.500000000       0.00200000
    0.200000000   -0.200000000   -0.500000000       0.00200000
    0.300000000   -0.200000000   -0.500000000       0.00200000
    0.400000000   -0.200000000   -0.500000000       0.00200000
   -0.500000000   -0.100000000   -0.500000000       0.00200000
   -0.400000000   -0.100000000   -0.500000000       0.00200000
   -0.300000000   -0.100000000   -0.500000000       0.00200000
   -0.200000000   -0.100000000   -0.500000000       0.00200000
   -0.100000000   -0.100000000   -0.500000000       0.00200000
    0.000000000   -0.100000000   -0.500000000       0.00200000
    0.100000000   -0.100000000   -0.500000000       0.00200000
    0.200000000   -0.100000000   -0.500000000       0.00200000
    0.300000000   -0.100000000   -0.500000000       0.00200000
    0.400000000   -0.100000000   -0.500000000       0.00200000
   -0.500000000    0.000000000   -0.500000000       0.00200000
   -0.400000000    0.000000000   -0.500000000       0.00200000
   -0.300000000    0.000000000   -0.500000000       0.00200000
   -0.200000000    0.000000000   -0.500000000       0.00200000
   -0.100000000    0.000000000   -0.500000000       0.00200000
    0.000000000    0.000000000   -0.500000000       0.00200000
    0.100000000    0.000000000   -0.500000000       0.00200000
    0.200000000    0.000000000   -0.500000000       0.00200000
    0.300000000    0.000000000   -0.500000000       0.00200000
    0.400000000    0.000000000   -0.500000000       0.00200000
   -0.500000000    0.100000000   -0.500000000       0.00200000
   -0.400000000    0.100000000   -0.500000000       0.00200000
   -0.300000000    0.100000000   -0.500000000       0.00200000
   -0.200000000    0.100000000   -0.500000000       0.00200000
   -0.100000000    0.100000000   -0.500000000       0.00200000
    0.000000000    0.100000000   -0.500000000       0.00200000
    0.100000000    0.100000000   -0.500000000       0.00200000
    0.200000000    0.100000000   -0.500000000       0.00200000
    0.300000000    0.100000000   -0.500000000       0.00200000
    0.400000000    0.100000000   -0.500000000       0.00200000
   -0.500000000    0.200000000   -0.500000000       0.00200000
   -0.400000000    0.200000000   -0.500000000       0.00200000
   -0.300000000    0.200000000   -0.500000000       0.00200000
   -0.200000000    0.200000000   -0.500000000       0.00200000
   -0.100000000    0.200000000   -0.500000000       0.00200000
    0.000000000    0.200000000   -0.500000000       0.00200000
    0.100000000    0.200000000   -0.500000000       0.00200000
    0.200000000    0.200000000   -0.500000000       0.00200000
    0.300000000    0.200000000   -0.500000000       0.00200000
    0.400000000    0.200000000   -0.500000000       0.00200000
   -0.500000000    0.300000000   -0.500000000       0.00200000
   -0.400000000    0.300000000   -0.500000000       0.00200000
   -0.300000000    0.300000000   -0.500000000       0.00200000
   -0.200000000    0.300000000   -0.500000000       0.00200000
   -0.100000000    0.300000000   -0.500000000       0.00200000
    0.000000000    0.300000000   -0.500000000       0.00200000
    0.100000000    0.300000000   -0.500000000       0.00200000
    0.200000000    0.300000000   -0.500000000       0.00200000
    0.300000000    0.300000000   -0.500000000       0.00200000
    0.400000000    0.300000000   -0.500000000       0.00200000
   -0.500000000    0.400000000   -0.500000000       0.00200000
   -0.400000000    0.400000000   -0.500000000       0.00200000
   -0.300000000    0.400000000   -0.500000000       0.00200000
   -0.200000000    0.400000000   -0.500000000       0.00200000
   -0.100000000    0.400000000   -0.500000000       0.00200000
    0.000000000    0.400000000   -0.500000000       0.00200000
    0.100000000    0.400000000   -0.500000000       0.00200000
    0.200000000    0.400000000   -0.500000000       0.00200000
    0.300000000    0.400000000   -0.500000000       0.00200000
    0.400000000    0.400000000   -0.500000000       0.00200000
   -0.500000000   -0.500000000   -0.400000000       0.00200000
   -0.400000000   -0.500000000   -0.400000000       0.00200000
   -0.300000000   -0.500000000   -0.400000000       0.00200000
   -0.200000000   -0.500000000   -0.400000000       0.00200000
   -0.100000000   -0.500000000   -0.400000000       0.00200000
    0.000000000   -0.500000000   -0.400000000       0.00200000
    0.100000000   -0.500000000   -0.400000000       0.00200000
    0.200000000   -0.500000000   -0.400000000       0.00200000
    0.300000000   -0.500000000   -0.400000000       0.00200000
    0.400000000   -0.500000000   -0.400000000       0.00200000
   -0.500000000   -0.400000000   -0.400000000       0.00200000
   -0.400000000   -0.400000000   -0.400000000       0.00200000
   -0.300000000   -0.400000000   -0.400000000       0.00200000
   -0.200000000   -0.400000000   -0.400000000       0.00200000
   -0.100000000   -0.400000000   -0.400000000       0.00200000
    0.000000000   -0.400000000   -0.400000000       0.00200000
    0.100000000   -0.400000000   -0.400000000       0.00200000
    0.200000000   -0.400000000   -0.400000000       0.00200000
    0.300000000   -0.400000000   -0.400000000       0.00200000
    0.400000000   -0.400000000   -0.400000000       0.00200000
   -0.500000000   -0.300000000   -0.400000000       0.00200000
   -0.400000000   -0.300000000   -0.400000000       0.00200000
   -0.300000000   -0.300000000   -0.400000000       0.00200000
   -0.200000000   -0.300000000   -0.400000000       0.00200000
   -0.100000000   -0.300000000   -0.400000000       0.00200000
    0.000000000   -0.300000000   -0.400000000       0.00200000
    0.100000000   -0.300000000   -0.400000000       0.00200000
    0.200000000   -0.300000000   -0.400000000       0.00200000
    0.300000000   -0.300000000   -0.400000000       0.00200000
    0.400000000   -0.300000000   -0.400000000       0.00200000
   -0.500000000   -0.200000000   -0.400000000       0.00200000
   -0.400000000   -0.200000000   -0.400000000       0.00200000
   -0.300000000   -0.200000000   -0.400000000       0.00200000
   -0.200000000   -0.200000000   -0.400000000       0.00200000
   -0.100000000   -0.200000000   -0.400000000       0.00200000
    0.000000000   -0.200000000   -0.400000000       0.00200000
    0.100000000   -0.200000000   -0.400000000       0.00200000
    0.200000000   -0.200000000   -0.400000000       0.00200000
    0.300000000   -0.200000000   -0.400000000       0.00200000
    0.400000000   -0.200000000   -0.400000000       0.00200000
   -0.500000000   -0.100000000   -0.400000000       0.00200000
   -0.400000000   -0.100000000   -0.400000000       0.00200000
   -0.300000000   -0.100000000   -0.400000000       0.00200000
   -0.200000000   -0.100000000   -0.400000000       0.00200000
   -0.100000000   -0.100000000   -0.400000000       0.00200000
    0.000000000   -0.100000000   -0.400000000       0.00200000
    0.100000000   -0.100000000   -0.400000000       0.00200000
    0.200000000   -0.100000000   -0.400000000       0.00200000
    0.300000000   -0.100000000   -0.400000000       0.00200000
    0.400000000   -0.100000000   -0.400000000       0.00200000
   -0.500000000    0.000000000   -0.400000000       0.00200000
   -0.400000000    0.000000000   -0.400000000       0.00200000
   -0.300000000    0.000000000   -0.400000000       0.00200000
   -0.200000000    0.000000000   -0.400000000       0.00200000
   -0.100000000    0.000000000   -0.400000000       0.00200000
    0.000000000    0.000000000   -0.400000000       0.00200000
    0.100000000    0.000000000   -0.400000000       0.00200000
    0.200000000    0.000000000   -0.400000000       0.00200000
    0.300000000    0.000000000   -0.400000000       0.00200000
    0.400000000    0.000000000   -0.400000000       0.00200000
   -0.500000000    0.100000000   -0.400000000       0.00200000
   -0.400000000    0.100000000   -0.400000000       0.00200000
   -0.300000000    0.100000000   -0.400000000       0.00200000
   -0.200000000    0.100000000   -0.400000000       0.00200000
   -0.100000000    0.100000000   -0.400000000       0.00200000
    0.000000000    0.100000000   -0.400000000       0.00200000
    0.100000000    0.100000000   -0.400000000       0.00200000
    0.200000000    0.100000000   -0.400000000       0.00200000
    0.300000000    0.100000000   -0.400000000       0.00200000
    0.400000000    0.100000000   -0.400000000       0.00200000
   -0.500000000    0.200000000   -0.400000000       0.00200000
   -0.400000000    0.200000000   -0.400000000       0.00200000
   -0.300000000    0.200000000   -0.400000000       0.00200000
   -0.200000000    0.200000000   -0.400000000       0.00200000
   -0.100000000    0.200000000   -0.400000000       0.00200000
    0.000000000    0.200000000   -0.400000000       0.00200000
    0.100000000    0.200000000   -0.400000000       0.00200000
    0.200000000    0.200000000   -0.400000000       0.00200000
    0.300000000    0.200000000   -0.400000000       0.00200000
    0.400000000    0.200000000   -0.400000000       0.00200000
   -0.500000000    0.300000000   -0.400000000       0.00200000
   -0.400000000    0.300000000   -0.400000000       0.00200000
   -0.300000000    0.300000000   -0.400000000       0.00200000
   -0.200000000    0.300000000   -0.400000000       0.00200000
   -0.100000000    0.300000000   -0.400000000       0.00200000
    0.000000000    0.300000000   -0.400000000       0.00200000
    0.100000000    0.300000000   -0.400000000       0.00200000
    0.200000000    0.300000000   -0.400000000       0.00200000
    0.300000000    0.300000000   -0.400000000       0.00200000
    0.400000000    0.300000000   -0.400000000       0.00200000
   -0.500000000    0.400000000   -0.400000000       0.00200000
   -0.400000000    0.400000000   -0.400000000       0.00200000
   -0.300000000    0.400000000   -0.400000000       0.00200000
   -0.200000000    0.400000000   -0.400000000       0.00200000
   -0.100000000    0.400000000   -0.400000000       0.00200000
    0.000000000    0.400000000   -0.400000000       0.00200000
    0.100000000    0.400000000   -0.400000000       0.00200000
    0.200000000    0.400000000   -0.400000000       0.00200000
    0.300000000    0.400000000   -0.400000000       0.00200000
    0.400000000    0.400000000   -0.400000000       0.00200000
   -0.500000000   -0.500000000   -0.300000000       0.00200000
   -0.400000000   -0.500000000   -0.300000000       0.00200000
   -0.300000000   -0.500000000   -0.300000000       0.00200000
   -0.200000000   -0.500000000   -0.300000000       0.00200000
   -0.100000000   -0.500000000   -0.300000000       0.00200000
    0.000000000   -0.500000000   -0.300000000       0.00200000
    0.100000000   -0.500000000   -0.300000000       0.00200000
    0.200000000   -0.500000000   -0.300000000       0.00200000
    0.300000000   -0.500000000   -0.300000000       0.00200000
    0.400000000   -0.500000000   -0.300000000       0.00200000
   -0.500000000   -0.400000000   -0.300000000       0.00200000
   -0.400000000   -0.400000000   -0.300000000       0.00200000
   -0.300000000   -0.400000000   -0.300000000       0.00200000
   -0.200000000   -0.400000000   -0.300000000       0.00200000
   -0.100000000   -0.400000000   -0.300000000       0.00200000
    0.000000000   -0.400000000   -0.300000000       0.00200000
    0.100000000   -0.400000000   -0.300000000       0.00200000
    0.200000000   -0.400000000   -0.300000000       0.00200000
    0.300000000   -0.400000000   -0.300000000       0.00200000
    0.400000000   -0.400000000   -0.300000000       0.00200000
   -0.500000000   -0.300000000   -0.300000000       0.00200000
   -0.400000000   -0.300000000   -0.300000000       0.00200000
   -0.300000000   -0.300000000   -0.300000000       0.00200000
   -0.200000000   -0.300000000   -0.300000000       0.00200000
   -0.100000000   -0.300000000   -0.300000000       0.00200000
    0.000000000   -0.300000000   -0.300000000       0.00200000
    0.100000000   -0.300000000   -0.300000000       0.00200000
    0.200000000   -0.300000000   -0.300000000       0.00200000
    0.300000000   -0.300000000   -0.300000000       0.00200000
    0.400000000   -0.300000000   -0.300000000       0.00200000
   -0.500000000   -0.200000000   -0.300000000       0.00200000
   -0.400000000   -0.200000000   -0.300000000       0.00200000
   -0.300000000   -0.200000000   -0.300000000       0.00200000
   -0.200000000   -0.200000000   -0.300000000       0.00200000
   -0.100000000   -0.200000000   -0.300000000       0.00200000
    0.000000000   -0.200000000   -0.300000000       0.00200000
    0.100000000   -0.200000000   -0.300000000       0.00200000
    0.200000000   -0.200000000   -0.300000000       0.00200000
    0.300000000   -0.200000000   -0.300000000       0.00200000
    0.400000000   -0.200000000   -0.300000000       0.00200000
   -0.500000000   -0.100000000   -0.300000000       0.00200000
   -0.400000000   -0.100000000   -0.300000000       0.00200000
   -0.300000000   -0.100000000   -0.300000000       0.00200000
   -0.200000000   -0.100000000   -0.300000000       0.00200000
   -0.100000000   -0.100000000   -0.300000000       0.00200000
    0.000000000   -0.100000000   -0.300000000       0.00200000
    0.100000000   -0.100000000   -0.300000000       0.00200000
    0.200000000   -0.100000000   -0.300000000       0.00200000
    0.300000000   -0.100000000   -0.300000000       0.00200000
    0.400000000   -0.100000000   -0.300000000       0.00200000
   -0.500000000    0.000000000   -0.300000000       0.00200000
   -0.400000000    0.000000000   -0.300000000       0.00200000
   -0.300000000    0.000000000   -0.300000000       0.00200000
   -0.200000000    0.000000000   -0.300000000       0.00200000
   -0.100000000    0.000000000   -0.300000000       0.00200000
    0.000000000    0.000000000   -0.300000000       0.00200000
    0.100000000    0.000000000   -0.300000000       0.00200000
    0.200000000    0.000000000   -0.300000000       0.00200000
    0.300000000    0.000000000   -0.300000000       0.00200000
    0.400000000    0.000000000   -0.300000000       0.00200000
   -0.500000000    0.100000000   -0.300000000       0.00200000
   -0.400000000    0.100000000   -0.300000000       0.00200000
   -0.300000000    0.100000000   -0.300000000       0.00200000
   -0.200000000    0.100000000   -0.300000000       0.00200000
   -0.100000000    0.100000000   -0.300000000       0.00200000
    0.000000000    0.100000000   -0.300000000       0.00200000
    0.100000000    0.100000000   -0.300000000       0.00200000
    0.200000000    0.100000000   -0.300000000       0.00200000
    0.300000000    0.100000000   -0.300000000       0.00200000
    0.400000000    0.100000000   -0.300000000       0.00200000
   -0.500000000    0.200000000   -0.300000000       0.00200000
   -0.400000000    0.200000000   -0.300000000       0.00200000
   -0.300000000    0.200000000   -0.300000000       0.00200000
   -0.200000000    0.200000000   -0.300000000       0.00200000
   -0.100000000    0.200000000   -0.300000000       0.00200000
    0.000000000    0.200000000   -0.300000000       0.00200000
    0.100000000    0.200000000   -0.300000000       0.00200000
    0.200000000    0.200000000   -0.300000000       0.00200000
    0.300000000    0.200000000   -0.300000000       0.00200000
    0.400000000    0.200000000   -0.300000000       0.00200000
   -0.500000000    0.300000000   -0.300000000       0.00200000
   -0.400000000    0.300000000   -0.300000000       0.00200000
   -0.300000000    0.300000000   -0.300000000       0.00200000
   -0.200000000    0.300000000   -0.300000000       0.00200000
   -0.100000000    0.300000000   -0.300000000       0.00200000
    0.000000000    0.300000000   -0.300000000       0.00200000
    0.100000000    0.300000000   -0.300000000       0.00200000
    0.200000000    0.300000000   -0.300000000       0.00200000
    0.300000000    0.300000000   -0.300000000       0.00200000
    0.400000000    0.300000000   -0.300000000       0.00200000
   -0.500000000    0.400000000   -0.300000000       0.00200000
   -0.400000000    0.400000000   -0.300000000       0.00200000
   -0.300000000    0.400000000   -0.300000000       0.00200000
   -0.200000000    0.400000000   -0.300000000       0.00200000
   -0.100000000    0.400000000   -0.300000000       0.00200000
    0.000000000    0.400000000   -0.300000000       0.00200000
    0.100000000    0.400000000   -0.300000000       0.00200000
    0.200000000    0.400000000   -0.300000000       0.00200000
    0.300000000    0.400000000   -0.300000000       0.00200000
    0.400000000    0.400000000   -0.300000000       0.00200000
   -0.500000000   -0.500000000   -0.200000000       0.00200000
   -0.400000000   -0.500000000   -0.200000000       0.00200000
   -0.300000000   -0.500000000   -0.200000000       0.00200000
   -0.200000000   -0.500000000   -0.200000000       0.00200000
   -0.100000000   -0.500000000   -0.200000000       0.00200000
    0.000000000   -0.500000000   -0.200000000       0.00200000
    0.100000000   -0.500000000   -0.200000000       0.00200000
    0.200000000   -0.500000000   -0.200000000       0.00200000
    0.300000000   -0.500000000   -0.200000000       0.00200000
    0.400000000   -0.500000000   -0.200000000       0.00200000
   -0.500000000   -0.400000000   -0.200000000       0.00200000
   -0.400000000   -0.400000000   -0.200000000       0.00200000
   -0.300000000   -0.400000000   -0.200000000       0.00200000
   -0.200000000   -0.400000000   -0.200000000       0.00200000
   -0.100000000   -0.400000000   -0.200000000       0.00200000
    0.000000000   -0.400000000   -0.200000000       0.00200000
    0.100000000   -0.400000000   -0.200000000       0.00200000
    0.200000000   -0.400000000   -0.200000000       0.00200000
    0.300000000   -0.400000000   -0.200000000       0.00200000
    0.400000000   -0.400000000   -0.200000000       0.00200000
   -0.500000000   -0.300000000   -0.200000000       0.00200000
   -0.400000000   -0.300000000   -0.200000000       0.00200000
   -0.300000000   -0.300000000   -0.200000000       0.00200000
   -0.200000000   -0.300000000   -0.200000000       0.00200000
   -0.100000000   -0.300000000   -0.200000000       0.00200000
    0.000000000   -0.300000000   -0.200000000       0.00200000
    0.100000000   -0.300000000   -0.200000000       0.00200000
    0.200000000   -0.300000000   -0.200000000       0.00200000
    0.300000000   -0.300000000   -0.200000000       0.00200000
    0.400000000   -0.300000000   -0.200000000       0.00200000
   -0.500000000   -0.200000000   -0.200000000       0.00200000
   -0.400000000   -0.200000000   -0.200000000       0.00200000
   -0.300000000   -0.200000000   -0.200000000       0.00200000
   -0.200000000   -0.200000000   -0.200000000       0.00200000
   -0.100000000   -0.200000000   -0.200000000       0.00200000
    0.000000000   -0.200000000   -0.200000000       0.00200000
    0.100000000   -0.200000000   -0.200000000       0.00200000
    0.200000000   -0.200000000   -0.200000000       0.00200000
    0.300000000   -0.200000000   -0.200000000       0.00200000
    0.400000000   -0.200000000   -0.200000000       0.00200000
   -0.500000000   -0.100000000   -0.200000000       0.00200000
   -0.400000000   -0.100000000   -0.200000000       0.00200000
   -0.300000000   -0.100000000   -0.200000000       0.00200000
   -0.200000000   -0.100000000   -0.200000000       0.00200000
   -0.100000000   -0.100000000   -0.200000000       0.00200000
    0.000000000   -0.100000000   -0.200000000       0.00200000
    0.100000000   -0.100000000   -0.200000000       0.00200000
    0.200000000   -0.100000000   -0.200000000       0.00200000
    0.300000000   -0.100000000   -0.200000000       0.00200000
    0.400000000   -0.100000000   -0.200000000       0.00200000
   -0.500000000    0.000000000   -0.200000000       0.00200000
   -0.400000000    0.000000000   -0.200000000       0.00200000
   -0.300000000    0.000000000   -0.200000000       0.00200000
   -0.200000000    0.000000000   -0.200000000       0.00200000
   -0.100000000    0.000000000   -0.200000000       0.00200000
    0.000000000    0.000000000   -0.200000000       0.00200000
    0.100000000    0.000000000   -0.200000000       0.00200000
    0.200000000    0.000000000   -0.200000000       0.00200000
    0.300000000    0.000000000   -0.200000000       0.00200000
    0.400000000    0.000000000   -0.200000000       0.00200000
   -0.500000000    0.100000000   -0.200000000       0.00200000
   -0.400000000    0.100000000   -0.200000000       0.00200000
   -0.300000000    0.100000000   -0.200000000       0.00200000
   -0.200000000    0.100000000   -0.200000000       0.00200000
   -0.100000000    0.100000000   -0.200000000       0.00200000
    0.000000000    0.100000000   -0.200000000       0.00200000
    0.100000000    0.100000000   -0.200000000       0.00200000
    0.200000000    0.100000000   -0.200000000       0.00200000
    0.300000000    0.100000000   -0.200000000       0.00200000
    0.400000000    0.100000000   -0.200000000       0.00200000
   -0.500000000    0.200000000   -0.200000000       0.00200000
   -0.400000000    0.200000000   -0.200000000       0.00200000
   -0.300000000    0.200000000   -0.200000000       0.00200000
   -0.200000000    0.200000000   -0.200000000       0.00200000
   -0.100000000    0.200000000   -0.200000000       0.00200000
    0.000000000    0.200000000   -0.200000000       0.00200000
    0.100000000    0.200000000   -0.200000000       0.00200000
    0.200000000    0.200000000   -0.200000000       0.00200000
    0.300000000    0.200000000   -0.200000000       0.00200000
    0.400000000    0.200000000   -0.200000000       0.00200000
   -0.500000000    0.300000000   -0.200000000       0.00200000
   -0.400000000    0.300000000   -0.200000000       0.00200000
   -0.300000000    0.300000000   -0.200000000       0.00200000
   -0.200000000    0.300000000   -0.200000000       0.00200000
   -0.100000000    0.300000000   -0.200000000       0.00200000
    0.000000000    0.300000000   -0.200000000       0.00200000
    0.100000000    0.300000000   -0.200000000       0.00200000
    0.200000000    0.300000000   -0.200000000       0.00200000
    0.300000000    0.300000000   -0.200000000       0.00200000
    0.400000000    0.300000000   -0.200000000       0.00200000
   -0.500000000    0.400000000   -0.200000000       0.00200000
   -0.400000000    0.400000000   -0.200000000       0.00200000
   -0.300000000    0.400000000   -0.200000000       0.00200000
   -0.200000000    0.400000000   -0.200000000       0.00200000
   -0.100000000    0.400000000   -0.200000000       0.00200000
    0.000000000    0.400000000   -0.200000000       0.00200000
    0.100000000    0.400000000   -0.200000000       0.00200000
    0.200000000    0.400000000   -0.200000000       0.00200000
    0.300000000    0.400000000   -0.200000000       0.00200000
    0.400000000    0.400000000   -0.200000000       0.00200000
   -0.500000000   -0.500000000   -0.100000000       0.00200000
   -0.400000000   -0.500000000   -0.100000000       0.00200000
   -0.300000000   -0.500000000   -0.100000000       0.00200000
   -0.200000000   -0.500000000   -0.100000000       0.00200000
   -0.100000000   -0.500000000   -0.100000000       0.00200000
    0.000000000   -0.500000000   -0.100000000       0.00200000
    0.100000000   -0.500000000   -0.100000000       0.00200000
    0.200000000   -0.500000000   -0.100000000       0.00200000
    0.300000000   -0.500000000   -0.100000000       0.00200000
    0.400000000   -0.500000000   -0.100000000       0.00200000
   -0.500000000   -0.400000000   -0.100000000       0.00200000
   -0.400000000   -0.400000000   -0.100000000       0.00200000
   -0.300000000   -0.400000000   -0.100000000       0.00200000
   -0.200000000   -0.400000000   -0.100000000       0.00200000
   -0.100000000   -0.400000000   -0.100000000       0.00200000
    0.000000000   -0.400000000   -0.100000000       0.00200000
    0.100000000   -0.400000000   -0.100000000       0.00200000
    0.200000000   -0.400000000   -0.100000000       0.00200000
    0.300000000   -0.400000000   -0.100000000       0.00200000
    0.400000000   -0.400000000   -0.100000000       0.00200000
   -0.500000000   -0.300000000   -0.100000000       0.00200000
   -0.400000000   -0.300000000   -0.100000000       0.00200000
   -0.300000000   -0.300000000   -0.100000000       0.00200000
   -0.200000000   -0.300000000   -0.100000000       0.00200000
   -0.100000000   -0.300000000   -0.100000000       0.00200000
    0.000000000   -0.300000000   -0.100000000       0.00200000
    0.100000000   -0.300000000   -0.100000000       0.00200000
    0.200000000   -0.300000000   -0.100000000       0.00200000
    0.300000000   -0.300000000   -0.100000000       0.00200000
    0.400000000   -0.300000000   -0.100000000       0.00200000
   -0.500000000   -0.200000000   -0.100000000       0.00200000
   -0.400000000   -0.200000000   -0.100000000       0.00200000
   -0.300000000   -0.200000000   -0.100000000       0.00200000
   -0.200000000   -0.200000000   -0.100000000       0.00200000
   -0.100000000   -0.200000000   -0.100000000       0.00200000
    0.000000000   -0.200000000   -0.100000000       0.00200000
    0.100000000   -0.200000000   -0.100000000       0.00200000
    0.200000000   -0.200000000   -0.100000000       0.00200000
    0.300000000   -0.200000000   -0.100000000       0.00200000
    0.400000000   -0.200000000   -0.100000000       0.00200000
   -0.500000000   -0.100000000   -0.100000000       0.00200000
   -0.400000000   -0.100000000   -0.100000000       0.00200000
   -0.300000000   -0.100000000   -0.100000000       0.00200000
   -0.200000000   -0.100000000   -0.100000000       0.00200000
   -0.100000000   -0.100000000   -0.100000000       0.00200000
    0.000000000   -0.100000000   -0.100000000       0.00200000
    0.100000000   -0.100000000   -0.100000000       0.00200000
    0.200000000   -0.100000000   -0.100000000       0.00200000
    0.300000000   -0.100000000   -0.100000000       0.00200000
    0.400000000   -0.100000000   -0.100000000       0.00200000
   -0.500000000    0.000000000   -0.100000000       0.00200000
   -0.400000000    0.000000000   -0.100000000       0.00200000
   -0.300000000    0.000000000   -0.100000000       0.00200000
   -0.200000000    0.000000000   -0.100000000       0.00200000
   -0.100000000    0.000000000   -0.100000000       0.00200000