
 &INPUT
   prefix = 'nichain'
   postfix = '_WanT_UP'
   work_dir = './'
   datatype = 'modulus'
   wann = '1-6'
   nrzl = -24
   nrzh =  24
   spin_component = 'UP'
 /
