
 &INPUT
   prefix         = 'poly_pa'
   postfix        = '_WanT'
   work_dir       = './SCRATCH'
   datafile_dft   = './SCRATCH/poly_pa.save/atomic_proj.dat'
   fileout        = './bands_PA.dat'
   nkpts_in       = 2
   nkpts_max      = 500
   do_orthoovp    = .FALSE.
   atmproj_sh     = 4.0
   atmproj_thr    = 0.9
 /
G   0.000  0.000  0.000
Z   0.000  0.000  0.500


