
 &INPUT
   prefix         = 'poly_pa'
   postfix        = '_WanT'
   work_dir       = './SCRATCH'
   datafile_dft   = './SCRATCH/poly_pa.save/atomic_proj.dat'
   fileout        = './dos_PA.dat'
   do_orthoovp    = .FALSE.
   atmproj_sh     = 4.0
   atmproj_thr    = 0.9
   nk(1) = 1
   nk(2) = 1
   nk(3) = 200
   delta = 0.05
   emin  = -20.0
   emax  =  3.5
   ne    = 1200
   smearing_type = 'gaussian'
   projdos = .TRUE.
 /


