
 &INPUT
   prefix = 'nichain'
   postfix = '_WanT_DW'
   work_dir = './'
   nkpts_in  = 2
   nkpts_max = 100
 /
G    0.0 0.0 0.0
Z    0.0 0.0 0.5
