&projwfc
  prefix='nichain'
  outdir='./SCRATCH'
  filpdos='./SCRATCH/nichain'
/
