 &control
    calculation='nscf'
    pseudo_dir = '../pseudo/',
    outdir = './SCRATCH/'
    prefix='silicon'
    wf_collect = .TRUE.
 /
 &system    
    ibrav=  2, celldm(1) =10.599478, nat=  2, ntyp= 1,
    ecutwfc =30.0
    nr1 = 32
    nr2 = 32
    nr3 = 32
 /
 &electrons
    mixing_mode = 'plain'
    mixing_beta = 0.7
    conv_thr =  1.0d-8
 /
ATOMIC_SPECIES
 Si  28.086  Si.vbc.UPF
ATOMIC_POSITIONS (alat)
 Si 0.00 0.00 0.00 
 Si 0.25 0.25 0.25 
K_POINTS (crystal)
   216
   -0.500000000   -0.500000000   -0.500000000       0.00925926
   -0.333333333   -0.500000000   -0.500000000       0.00925926
   -0.166666667   -0.500000000   -0.500000000       0.00925926
    0.000000000   -0.500000000   -0.500000000       0.00925926
    0.166666667   -0.500000000   -0.500000000       0.00925926
    0.333333333   -0.500000000   -0.500000000       0.00925926
   -0.500000000   -0.333333333   -0.500000000       0.00925926
   -0.333333333   -0.333333333   -0.500000000       0.00925926
   -0.166666667   -0.333333333   -0.500000000       0.00925926
    0.000000000   -0.333333333   -0.500000000       0.00925926
    0.166666667   -0.333333333   -0.500000000       0.00925926
    0.333333333   -0.333333333   -0.500000000       0.00925926
   -0.500000000   -0.166666667   -0.500000000       0.00925926
   -0.333333333   -0.166666667   -0.500000000       0.00925926
   -0.166666667   -0.166666667   -0.500000000       0.00925926
    0.000000000   -0.166666667   -0.500000000       0.00925926
    0.166666667   -0.166666667   -0.500000000       0.00925926
    0.333333333   -0.166666667   -0.500000000       0.00925926
   -0.500000000    0.000000000   -0.500000000       0.00925926
   -0.333333333    0.000000000   -0.500000000       0.00925926
   -0.166666667    0.000000000   -0.500000000       0.00925926
    0.000000000    0.000000000   -0.500000000       0.00925926
    0.166666667    0.000000000   -0.500000000       0.00925926
    0.333333333    0.000000000   -0.500000000       0.00925926
   -0.500000000    0.166666667   -0.500000000       0.00925926
   -0.333333333    0.166666667   -0.500000000       0.00925926
   -0.166666667    0.166666667   -0.500000000       0.00925926
    0.000000000    0.166666667   -0.500000000       0.00925926
    0.166666667    0.166666667   -0.500000000       0.00925926
    0.333333333    0.166666667   -0.500000000       0.00925926
   -0.500000000    0.333333333   -0.500000000       0.00925926
   -0.333333333    0.333333333   -0.500000000       0.00925926
   -0.166666667    0.333333333   -0.500000000       0.00925926
    0.000000000    0.333333333   -0.500000000       0.00925926
    0.166666667    0.333333333   -0.500000000       0.00925926
    0.333333333    0.333333333   -0.500000000       0.00925926
   -0.500000000   -0.500000000   -0.333333333       0.00925926
   -0.333333333   -0.500000000   -0.333333333       0.00925926
   -0.166666667   -0.500000000   -0.333333333       0.00925926
    0.000000000   -0.500000000   -0.333333333       0.00925926
    0.166666667   -0.500000000   -0.333333333       0.00925926
    0.333333333   -0.500000000   -0.333333333       0.00925926
   -0.500000000   -0.333333333   -0.333333333       0.00925926
   -0.333333333   -0.333333333   -0.333333333       0.00925926
   -0.166666667   -0.333333333   -0.333333333       0.00925926
    0.000000000   -0.333333333   -0.333333333       0.00925926
    0.166666667   -0.333333333   -0.333333333       0.00925926
    0.333333333   -0.333333333   -0.333333333       0.00925926
   -0.500000000   -0.166666667   -0.333333333       0.00925926
   -0.333333333   -0.166666667   -0.333333333       0.00925926
   -0.166666667   -0.166666667   -0.333333333       0.00925926
    0.000000000   -0.166666667   -0.333333333       0.00925926
    0.166666667   -0.166666667   -0.333333333       0.00925926
    0.333333333   -0.166666667   -0.333333333       0.00925926
   -0.500000000    0.000000000   -0.333333333       0.00925926
   -0.333333333    0.000000000   -0.333333333       0.00925926
   -0.166666667    0.000000000   -0.333333333       0.00925926
    0.000000000    0.000000000   -0.333333333       0.00925926
    0.166666667    0.000000000   -0.333333333       0.00925926
    0.333333333    0.000000000   -0.333333333       0.00925926
   -0.500000000    0.166666667   -0.333333333       0.00925926
   -0.333333333    0.166666667   -0.333333333       0.00925926
   -0.166666667    0.166666667   -0.333333333       0.00925926
    0.000000000    0.166666667   -0.333333333       0.00925926
    0.166666667    0.166666667   -0.333333333       0.00925926
    0.333333333    0.166666667   -0.333333333       0.00925926
   -0.500000000    0.333333333   -0.333333333       0.00925926
   -0.333333333    0.333333333   -0.333333333       0.00925926
   -0.166666667    0.333333333   -0.333333333       0.00925926
    0.000000000    0.333333333   -0.333333333       0.00925926
    0.166666667    0.333333333   -0.333333333       0.00925926
    0.333333333    0.333333333   -0.333333333       0.00925926
   -0.500000000   -0.500000000   -0.166666667       0.00925926
   -0.333333333   -0.500000000   -0.166666667       0.00925926
   -0.166666667   -0.500000000   -0.166666667       0.00925926
    0.000000000   -0.500000000   -0.166666667       0.00925926
    0.166666667   -0.500000000   -0.166666667       0.00925926
    0.333333333   -0.500000000   -0.166666667       0.00925926
   -0.500000000   -0.333333333   -0.166666667       0.00925926
   -0.333333333   -0.333333333   -0.166666667       0.00925926
   -0.166666667   -0.333333333   -0.166666667       0.00925926
    0.000000000   -0.333333333   -0.166666667       0.00925926
    0.166666667   -0.333333333   -0.166666667       0.00925926
    0.333333333   -0.333333333   -0.166666667       0.00925926
   -0.500000000   -0.166666667   -0.166666667       0.00925926
   -0.333333333   -0.166666667   -0.166666667       0.00925926
   -0.166666667   -0.166666667   -0.166666667       0.00925926
    0.000000000   -0.166666667   -0.166666667       0.00925926
    0.166666667   -0.166666667   -0.166666667       0.00925926
    0.333333333   -0.166666667   -0.166666667       0.00925926
   -0.500000000    0.000000000   -0.166666667       0.00925926
   -0.333333333    0.000000000   -0.166666667       0.00925926
   -0.166666667    0.000000000   -0.166666667       0.00925926
    0.000000000    0.000000000   -0.166666667       0.00925926
    0.166666667    0.000000000   -0.166666667       0.00925926
    0.333333333    0.000000000   -0.166666667       0.00925926
   -0.500000000    0.166666667   -0.166666667       0.00925926
   -0.333333333    0.166666667   -0.166666667       0.00925926
   -0.166666667    0.166666667   -0.166666667       0.00925926
    0.000000000    0.166666667   -0.166666667       0.00925926
    0.166666667    0.166666667   -0.166666667       0.00925926
    0.333333333    0.166666667   -0.166666667       0.00925926
   -0.500000000    0.333333333   -0.166666667       0.00925926
   -0.333333333    0.333333333   -0.166666667       0.00925926
   -0.166666667    0.333333333   -0.166666667       0.00925926
    0.000000000    0.333333333   -0.166666667       0.00925926
    0.166666667    0.333333333   -0.166666667       0.00925926
    0.333333333    0.333333333   -0.166666667       0.00925926
   -0.500000000   -0.500000000    0.000000000       0.00925926
   -0.333333333   -0.500000000    0.000000000       0.00925926
   -0.166666667   -0.500000000    0.000000000       0.00925926
    0.000000000   -0.500000000    0.000000000       0.00925926
    0.166666667   -0.500000000    0.000000000       0.00925926
    0.333333333   -0.500000000    0.000000000       0.00925926
   -0.500000000   -0.333333333    0.000000000       0.00925926
   -0.333333333   -0.333333333    0.000000000       0.00925926
   -0.166666667   -0.333333333    0.000000000       0.00925926
    0.000000000   -0.333333333    0.000000000       0.00925926
    0.166666667   -0.333333333    0.000000000       0.00925926
    0.333333333   -0.333333333    0.000000000       0.00925926
   -0.500000000   -0.166666667    0.000000000       0.00925926
   -0.333333333   -0.166666667    0.000000000       0.00925926
   -0.166666667   -0.166666667    0.000000000       0.00925926
    0.000000000   -0.166666667    0.000000000       0.00925926
    0.166666667   -0.166666667    0.000000000       0.00925926
    0.333333333   -0.166666667    0.000000000       0.00925926
   -0.500000000    0.000000000    0.000000000       0.00925926
   -0.333333333    0.000000000    0.000000000       0.00925926
   -0.166666667    0.000000000    0.000000000       0.00925926
    0.000000000    0.000000000    0.000000000       0.00925926
    0.166666667    0.000000000    0.000000000       0.00925926
    0.333333333    0.000000000    0.000000000       0.00925926
   -0.500000000    0.166666667    0.000000000       0.00925926
   -0.333333333    0.166666667    0.000000000       0.00925926
   -0.166666667    0.166666667    0.000000000       0.00925926
    0.000000000    0.166666667    0.000000000       0.00925926
    0.166666667    0.166666667    0.000000000       0.00925926
    0.333333333    0.166666667    0.000000000       0.00925926
   -0.500000000    0.333333333    0.000000000       0.00925926
   -0.333333333    0.333333333    0.000000000       0.00925926
   -0.166666667    0.333333333    0.000000000       0.00925926
    0.000000000    0.333333333    0.000000000       0.00925926
    0.166666667    0.333333333    0.000000000       0.00925926
    0.333333333    0.333333333    0.000000000       0.00925926
   -0.500000000   -0.500000000    0.166666667       0.00925926
   -0.333333333   -0.500000000    0.166666667       0.00925926
   -0.166666667   -0.500000000    0.166666667       0.00925926
    0.000000000   -0.500000000    0.166666667       0.00925926
    0.166666667   -0.500000000    0.166666667       0.00925926
    0.333333333   -0.500000000    0.166666667       0.00925926
   -0.500000000   -0.333333333    0.166666667       0.00925926
   -0.333333333   -0.333333333    0.166666667       0.00925926
   -0.166666667   -0.333333333    0.166666667       0.00925926
    0.000000000   -0.333333333    0.166666667       0.00925926
    0.166666667   -0.333333333    0.166666667       0.00925926
    0.333333333   -0.333333333    0.166666667       0.00925926
   -0.500000000   -0.166666667    0.166666667       0.00925926
   -0.333333333   -0.166666667    0.166666667       0.00925926
   -0.166666667   -0.166666667    0.166666667       0.00925926
    0.000000000   -0.166666667    0.166666667       0.00925926
    0.166666667   -0.166666667    0.166666667       0.00925926
    0.333333333   -0.166666667    0.166666667       0.00925926
   -0.500000000    0.000000000    0.166666667       0.00925926
   -0.333333333    0.000000000    0.166666667       0.00925926
   -0.166666667    0.000000000    0.166666667       0.00925926
    0.000000000    0.000000000    0.166666667       0.00925926
    0.166666667    0.000000000    0.166666667       0.00925926
    0.333333333    0.000000000    0.166666667       0.00925926
   -0.500000000    0.166666667    0.166666667       0.00925926
   -0.333333333    0.166666667    0.166666667       0.00925926
   -0.166666667    0.166666667    0.166666667       0.00925926
    0.000000000    0.166666667    0.166666667       0.00925926
    0.166666667    0.166666667    0.166666667       0.00925926
    0.333333333    0.166666667    0.166666667       0.00925926
   -0.500000000    0.333333333    0.166666667       0.00925926
   -0.333333333    0.333333333    0.166666667       0.00925926
   -0.166666667    0.333333333    0.166666667       0.00925926
    0.000000000    0.333333333    0.166666667       0.00925926
    0.166666667    0.333333333    0.166666667       0.00925926
    0.333333333    0.333333333    0.166666667       0.00925926
   -0.500000000   -0.500000000    0.333333333       0.00925926
   -0.333333333   -0.500000000    0.333333333       0.00925926
   -0.166666667   -0.500000000    0.333333333       0.00925926
    0.000000000   -0.500000000    0.333333333       0.00925926
    0.166666667   -0.500000000    0.333333333       0.00925926
    0.333333333   -0.500000000    0.333333333       0.00925926
   -0.500000000   -0.333333333    0.333333333       0.00925926
   -0.333333333   -0.333333333    0.333333333       0.00925926
   -0.166666667   -0.333333333    0.333333333       0.00925926
    0.000000000   -0.333333333    0.333333333       0.00925926
    0.166666667   -0.333333333    0.333333333       0.00925926
    0.333333333   -0.333333333    0.333333333       0.00925926
   -0.500000000   -0.166666667    0.333333333       0.00925926
   -0.333333333   -0.166666667    0.333333333       0.00925926
   -0.166666667   -0.166666667    0.333333333       0.00925926
    0.000000000   -0.166666667    0.333333333       0.00925926
    0.166666667   -0.166666667    0.333333333       0.00925926
    0.333333333   -0.166666667    0.333333333       0.00925926
   -0.500000000    0.000000000    0.333333333       0.00925926
   -0.333333333    0.000000000    0.333333333       0.00925926
   -0.166666667    0.000000000    0.333333333       0.00925926
    0.000000000    0.000000000    0.333333333       0.00925926
    0.166666667    0.000000000    0.333333333       0.00925926
    0.333333333    0.000000000    0.333333333       0.00925926
   -0.500000000    0.166666667    0.333333333       0.00925926
   -0.333333333    0.166666667    0.333333333       0.00925926
   -0.166666667    0.166666667    0.333333333       0.00925926
    0.000000000    0.166666667    0.333333333       0.00925926
    0.166666667    0.166666667    0.333333333       0.00925926
    0.333333333    0.166666667    0.333333333       0.00925926
   -0.500000000    0.333333333    0.333333333       0.00925926
   -0.333333333    0.333333333    0.333333333       0.00925926
   -0.166666667    0.333333333    0.333333333       0.00925926
    0.000000000    0.333333333    0.333333333       0.00925926
    0.166666667    0.333333333    0.333333333       0.00925926
    0.333333333    0.333333333    0.333333333       0.00925926
