 &CONTROL
    calculation = 'scf'
    restart_mode='from_scratch',
    prefix='gaas',
    pseudo_dir = '../pseudo/'
    outdir = './SCRATCH/'
 /
 &system    
    ibrav = 0, 
    celldm(1) = 10.55, 
    nat = 2, 
    ntyp = 2,
    ecutwfc = 18.0
 /
 &electrons
    mixing_mode = 'plain'
    mixing_beta = 0.7 
    conv_thr =  1.0d-8
 /
CELL_PARAMETERS cubic
 0.0 0.5 0.5
 0.5 0.0 0.5
 0.5 0.5 0.0
ATOMIC_SPECIES
 Ga  69.72  Ga.pz-bhs.UPF
 As  74.92  As.pz-bhs.UPF
ATOMIC_POSITIONS (crystal)
 Ga 0.00 0.00 0.00 
 As 0.25 0.25 0.25 
K_POINTS {automatic}
  4 4 4  0 0 0


