
 &INPUT
   prefix = 'chain8'
   postfix = '_WanT'
   work_dir = './SCRATCH/COND/'
   nkpts_in  = 2
   nkpts_max = 100
 /
G    0.0 0.0 0.0
X    0.5 0.0 0.0
