
 &INPUT
   prefix = 'chain4'
   postfix = '_WanT'
   work_dir = './LEADS/'
   nspts  = 2
   npts   = 100
   efermi = -3.8798     !(-3.8798 +0.0000) from PWSCF scf_cond.out 20 Ry 
                        !                  + rigid matching shift
 /
G
0.0 0.0 0.0
X
0.5 0.0 0.0
