
 &INPUT
   prefix = 'chain8'
   postfix = '_WanT'
   work_dir = './SCRATCH/COND/'
   datatype = 'modulus'
   output_fmt = 'plt'
   wann = '1-2'
 /
