&inputpp
  prefix='chain4'
  outdir='./LEADS/'
  ascii = .FALSE.
  pseudo_dir = './'
  psfile(1) = 'Au11pw91.mt.UPF'
  single_file = .FALSE.
  ascii = .FALSE.
/
