Carbon dimer chain; USPP
4 atoms per cell
 &CONTROL
    calculation = 'scf'
    restart_mode='from_scratch',
    prefix='chain4',
    tstress = .false.
    tprnfor = .true.
    pseudo_dir = '../pseudo/'
    outdir = './SCRATCH/LEADS/'
 /
 &SYSTEM    
      ibrav=8,
      celldm(1)=10.355703,
      celldm(2)=2.25,
      celldm(3)=2.25,
      nat=4,
      ntyp=1,
      ecutwfc=20.0,
      ecutrho=200.0,
      occupations='smearing',
      smearing='gaussian',
      degauss=0.01,
 /
 &ELECTRONS
    electron_maxstep = 50,
    mixing_mode = 'plain'
    mixing_beta = 0.3 
    conv_thr =  1.0d-8
 /
ATOMIC_SPECIES
 C  12.011  C.pbe-van_bm.UPF
ATOMIC_POSITIONS (crystal)
C        0.00000000      0.00000000      0.00000000   1   1   1
C        0.22262770      0.00000000      0.00000000   1   1   1
C        0.50000000      0.00000000      0.00000000   1   1   1
C        0.72262770      0.00000000      0.00000000   1   1   1
K_POINTS {automatic}
 4 1 1     1 0 0


