
&CONTROL
   prefix = 'chain4'
   postfix = '_WanT'
   work_dir = './LEADS/'
/

&SUBSPACE
   dimwann = 8   
   win_min = -22.0
   win_max =  -4.5
   alpha_dis = 0.5                   
   maxiter_dis = 300                  
   start_mode_dis = 'center_projections' 
/

&LOCALIZATION
   maxiter0_wan = 10 
   maxiter1_wan = 1000 
   ncg = 9       
   nshells = 2   
   nwhich(1) = 1 
   nwhich(2) = 4 
   ordering_mode = 'none'
/

WANNIER_CENTERS {crystal}
1gauss    0.1113138  0.0000000  0.0000000     0  0  3    0.8
1gauss    0.1113138  0.0000000  0.0000000     1  0  3    0.8
1gauss    0.1113138  0.0000000  0.0000000     1  1  3    0.8
1gauss    0.3613138  0.0000000  0.0000000     0  0  3    0.8
1gauss    0.6113138  0.0000000  0.0000000     0  0  3    0.8
1gauss    0.6113138  0.0000000  0.0000000     1  0  3    0.8
1gauss    0.6113138  0.0000000  0.0000000     1  1  3    0.8
1gauss    0.8613138  0.0000000  0.0000000     0  0  3    0.8

