
&CONTROL
   prefix = 'chain8'
   postfix = '_WanT'
   work_dir = './COND/'
   verbosity = 'high'
/

&SUBSPACE
   dimwann = 16
   win_max =  -4.153652200
/

&LOCALIZATION
   a_condmin = 10.0
   maxiter0_wan = 200
   maxiter1_wan = 4000
   ordering_mode = 'none'
/

WANNIER_CENTERS {crystal}
1gauss    0.0556569  0.0000000  0.0000000     0  0     1.0   1.0
1gauss    0.0556569  0.0000000  0.0000000     1  0     1.0   1.0
1gauss    0.0556569  0.0000000  0.0000000     1  1     1.0   1.0
1gauss    0.1806569  0.0000000  0.0000000     0  0     1.0   1.0
1gauss    0.3056569  0.0000000  0.0000000     0  0     1.0   1.0
1gauss    0.3056569  0.0000000  0.0000000     1  0     1.0   1.0
1gauss    0.3056569  0.0000000  0.0000000     1  1     1.0   1.0
1gauss    0.4306569  0.0000000  0.0000000     0  0     1.0   1.0
1gauss    0.5556569  0.0000000  0.0000000     0  0     1.0   1.0
1gauss    0.5556569  0.0000000  0.0000000     1  0     1.0   1.0
1gauss    0.5556569  0.0000000  0.0000000     1  1     1.0   1.0
1gauss    0.6806569  0.0000000  0.0000000     0  0     1.0   1.0
1gauss    0.8056569  0.0000000  0.0000000     0  0     1.0   1.0
1gauss    0.8056569  0.0000000  0.0000000     1  0     1.0   1.0
1gauss    0.8056569  0.0000000  0.0000000     1  1     1.0   1.0
1gauss    0.9306569  0.0000000  0.0000000     0  0     1.0   1.0

atomic    1   1  0   1.0
atomic    1   1 -1   1.0
atomic    2   1  0   1.0
atomic    2   1 -1   1.0
atomic    3   1  0   1.0
atomic    3   1 -1   1.0
atomic    4   1  0   1.0
atomic    4   1 -1   1.0
atomic    5   1  0   1.0
atomic    5   1 -1   1.0
atomic    6   1  0   1.0
atomic    6   1 -1   1.0
atomic    7   1  0   1.0
atomic    7   1 -1   1.0
atomic    8   1  0   1.0
atomic    8   1 -1   1.0

{crystal}
1gauss    0.0556569  0.0000000  0.0000000     0  0     1.0   1.0
1gauss    0.1806569  0.0000000  0.0000000     0  0     1.0   1.0
1gauss    0.3056569  0.0000000  0.0000000     0  0     1.0   1.0
1gauss    0.4306569  0.0000000  0.0000000     0  0     1.0   1.0
1gauss    0.5556569  0.0000000  0.0000000     0  0     1.0   1.0
1gauss    0.6806569  0.0000000  0.0000000     0  0     1.0   1.0
1gauss    0.8056569  0.0000000  0.0000000     0  0     1.0   1.0
1gauss    0.9306569  0.0000000  0.0000000     0  0     1.0   1.0


