Infinite Hydrogen Chain

   &CONTROL
      calculation = 'nscf',
      restart_mode='from_scratch',
      verbosity='default',
      prefix='hydrogen_H6',
      nstep=100,
      pseudo_dir = '../pseudo',
      outdir = './SCRATCH/'
      wf_collect = .TRUE.
   /
   &SYSTEM
      ibrav=8, 
      celldm(1)=20.0, 
      celldm(2)=1.0,
      celldm(3)=0.95468208179871763134     ! = 6 * 1.683986 Ang
      nat=6, 
      ntyp=1,
      ecutwfc=25.0,
      ecutrho=200.0,
      occupations='smearing',
      smearing='gaussian',
      degauss=0.01
      
   /
   &ELECTRONS
      electron_maxstep = 100,
      mixing_mode = 'plain',
      mixing_beta = 0.3,
      conv_thr =  1.0d-8,
   /
ATOMIC_SPECIES
  H   1.008   H.pz-rrkjus.UPF
ATOMIC_POSITIONS {angstrom}
H   0.0  0.0    0.00000000000
H   0.0  0.0   -5.05195841520
H   0.0  0.0    3.36797227680
H   0.0  0.0   -3.36797227680
H   0.0  0.0    1.68398613840
H   0.0  0.0   -1.68398613840
K_POINTS {crystal}
     4
    0.000000000    0.000000000   -0.500000000       0.50000000
    0.000000000    0.000000000   -0.250000000       0.50000000
    0.000000000    0.000000000    0.000000000       0.50000000
    0.000000000    0.000000000    0.250000000       0.50000000

