
&CONTROL
   prefix = 'hydrogen_H6'
   postfix = '_WanT'
   work_dir = './SCRATCH/'
   restart_mode = 'from_scratch'
/

&SUBSPACE
   dimwann  = 6    
   win_max  = 0.0 
   froz_max = -1.0
/   

&LOCALIZATION
   maxiter0_wan = 100
   maxiter1_wan = 1500
   ncg = 5       
/

WANNIER_CENTERS 
atomic   1   0  0
atomic   2   0  0
atomic   3   0  0
atomic   4   0  0
atomic   5   0  0
atomic   6   0  0
