
&INPUTPP
  prefix='chain8'
  outdir='./SCRATCH/COND/'
  pseudo_dir = '../pseudo/'
  psfile(1) = 'C.pbe-van_bm.UPF'
/
