
&CONTROL
   prefix = 'au_bulk'
   postfix = '_WanT'
   work_dir = './SCRATCH/'
/

&SUBSPACE
   dimwann = 24
   froz_max = -3.2     ! Ef = -4.2
   maxiter_dis = 2000
/

&LOCALIZATION
   maxiter0_wan = 100, 
   maxiter1_wan = 5000, 
   ncg = 5      
/

WANNIER_CENTERS {angstrom}
1gauss     0.000000000    0.000000000   -6.249999507   0 0  0.5
atomic   1  2 -2
atomic   1  2 -1
atomic   1  2  0
atomic   1  2  1
atomic   1  2  2
1gauss     0.000000000    0.000000000   -3.749998522   0 0  0.5
atomic   2  2 -2
atomic   2  2 -1
atomic   2  2  0
atomic   2  2  1
atomic   2  2  2
1gauss     0.000000000    0.000000000   -1.249999507   0 0  0.5
atomic   3  2 -2
atomic   3  2 -1
atomic   3  2  0
atomic   3  2  1
atomic   3  2  2
1gauss     0.000000000    0.000000000    1.249999507   0 0  0.5
atomic   4  2 -2
atomic   4  2 -1
atomic   4  2  0
atomic   4  2  1
atomic   4  2  2

