
 &INPUT
   prefix    = 'graphite'
   postfix   = '_WanT'
   work_dir  = './SCRATCH/'
   fileout   = './bands_graphite.dat'
   nkpts_in  = 5
   nkpts_max = 400
 /

P  0.3333   0.3333   0.0   
G  0.0      0.0      0.0
Q  0.5      0.0      0.0
P  0.3333   0.3333   0.0   
H  0.3333   0.3333   0.5   

