
&INPUTPP
  prefix='graphite'
  outdir='./SCRATCH/'
  pseudo_dir = '../pseudo/'
  psfile(1) = 'C.pbe-van_bm.UPF'
/

