Si bulk zincblende

   &CONTROL
      calculation = 'scf',
      restart_mode='from_scratch',
      prefix='silicon_zb',
      tstress = .FALSE.,
      tprnfor = .TRUE.,
      pseudo_dir = './',
   /
   &SYSTEM
      ibrav=4, 
      celldm(1)=7.2565,
      celldm(3)=4.8992,    
      nat=12, 
      ntyp=1,
      ecutwfc=30.0,
   /
   &ELECTRONS
      mixing_mode = 'plain',
      mixing_beta = 0.3,
      conv_thr =  1.0d-8,
   /
ATOMIC_SPECIES
 Si  28.086  Si.vbc.UPF
ATOMIC_POSITIONS {crystal}
Si       0.000000000    0.000000000    0.000000000
Si       0.333333333   -0.333333333    0.166666667
Si       0.666666667    0.333333333    0.333333333
Si       0.000000000    0.000000000    0.500000000
Si       0.333333333   -0.333333333    0.666666667
Si       0.666666667    0.333333333    0.833333333
Si       0.000000000    0.000000000    0.125000000
Si       0.333333333   -0.333333333    0.291666667
Si       0.666666667    0.333333333    0.458333333
Si       0.000000000    0.000000000    0.625000000
Si       0.333333333   -0.333333333    0.791666667
Si       0.666666667    0.333333333    0.958333333
K_POINTS {automatic}
   12 12 2   1  1  1

