
&CONTROL
   prefix = 'silicon_zb'
   postfix = '_WanT'
   work_dir = './'
   verbosity = 'high'
/

&SUBSPACE
   dimwann = 24
   froz_max = 6.5
   maxiter_dis = 500
/

&LOCALIZATION
   maxiter0_wan = 100, 
   alpha0_wan = 0.3
   maxiter1_wan = 5000, 
   alpha1_wan = 0.5
   ncg = 9      
   wannier_thr = 1.0e-6
/

WANNIER_CENTERS {crystal}
1gauss        0.000000000    0.000000000    0.062500000      0  0   0.8   1.0
1gauss        0.166666667   -0.166666667    0.145833333      0  0   0.8   1.0
1gauss        0.333333333   -0.333333333    0.229166667      0  0   0.8   1.0
1gauss        0.666666666   -0.166666667    0.145833333      0  0   0.8   1.0
1gauss        0.500000000    0.000000000    0.312500000      0  0   0.8   1.0
1gauss        0.666666667    0.333333333    0.395833333      0  0   0.8   1.0
1gauss        0.500000000    0.500000000    0.312500000      0  0   0.8   1.0
1gauss        1.000000000    0.500000000    0.312500000      0  0   0.8   1.0
1gauss        0.333333333    0.166666667    0.479166666      0  0   0.8   1.0
1gauss        0.000000000    0.000000000    0.562500000      0  0   0.8   1.0
1gauss        0.166666667   -0.166666667    0.645833333      0  0   0.8   1.0
1gauss        0.333333333   -0.333333333    0.729166667      0  0   0.8   1.0
1gauss        0.666666666   -0.166666667    0.645833333      0  0   0.8   1.0
1gauss        0.500000000    0.000000000    0.812500000      0  0   0.8   1.0
1gauss        0.666666667    0.333333333    0.895833333      0  0   0.8   1.0
1gauss        0.500000000    0.500000000    0.812500000      0  0   0.8   1.0
1gauss        1.000000000    0.500000000    0.812500000      0  0   0.8   1.0
1gauss        0.166666666    0.333333333    0.145833333      0  0   0.8   1.0
1gauss        0.833333333    0.166666667    0.479166666      0  0   0.8   1.0
1gauss        0.833333334    0.666666667    0.479166666      0  0   0.8   1.0
1gauss        0.166666666    0.333333333    0.645833333      0  0   0.8   1.0
1gauss        0.333333333    0.166666667    0.979166666      0  0   0.8   1.0
1gauss        0.833333333    0.166666667    0.979166666      0  0   0.8   1.0
1gauss        0.833333334    0.666666667    0.979166666      0  0   0.8   1.0
atomic  1  0   0   0.0
atomic  2  0   0   0.0
atomic  3  0   0   0.0
atomic  4  0   0   0.0
atomic  5  0   0   0.0
atomic  6  0   0   0.0

