Al wire, 15 LDA NCPP
a=3.0 ang
   &CONTROL
      calculation = 'scf',
      restart_mode='from_scratch',
      prefix='al1',
      pseudo_dir = './',
   /
   &SYSTEM
      ibrav=6, 
      celldm(1)=12.0
      celldm(3)=0.375,
      nat=1, 
      ntyp=1,
      ecutwfc=15.0,
      occupations='smearing',
      smearing='methfessel-paxton',
      degauss=0.01,
      nbnd=20
   /
   &ELECTRONS
      mixing_beta = 0.3,
      conv_thr =  1.0d-8,
   /
ATOMIC_SPECIES
  Al  26.98154  Al.pz-vbc.UPF
ATOMIC_POSITIONS {angstrom}
Al    0.000    0.000   0.000
K_POINTS {automatic}
   1 1 15    0  0  0

