
&CONTROL
   prefix = 'al5'
   postfix = '_WanT'
   work_dir = './SCRATCH/'
/

&SUBSPACE
   dimwann = 20     
   win_max = 10.0  
   froz_max = 1.5
   maxiter_dis = 1000
/

&LOCALIZATION
   a_condmin = 20.0
   maxiter0_wan = 100, 
   maxiter1_wan = 5000, 
   ncg = 5      
/

WANNIER_CENTERS {crystal}
1gauss    0.000000    0.000000    0.000000  0  0   0.6   1.0
1gauss    0.000000    0.000000    0.100000  1  0   0.6   1.0
1gauss    0.000000    0.000000    0.000000  1 -1   0.6   1.0
1gauss    0.000000    0.000000    0.000000  1 +1   0.6   1.0
1gauss    0.000000    0.000000    0.200000  0  0   0.6   1.0
1gauss    0.000000    0.000000    0.300000  1  0   0.6   1.0
1gauss    0.000000    0.000000    0.200000  1 -1   0.6   1.0
1gauss    0.000000    0.000000    0.200000  1 +1   0.6   1.0
1gauss    0.000000    0.000000    0.400000  0  0   0.6   1.0
1gauss    0.000000    0.000000    0.500000  1  0   0.6   1.0
1gauss    0.000000    0.000000    0.400000  1 -1   0.6   1.0
1gauss    0.000000    0.000000    0.400000  1 +1   0.6   1.0
1gauss    0.000000    0.000000    0.600000  0  0   0.6   1.0
1gauss    0.000000    0.000000    0.700000  1  0   0.6   1.0
1gauss    0.000000    0.000000    0.600000  1 -1   0.6   1.0
1gauss    0.000000    0.000000    0.600000  1 +1   0.6   1.0
1gauss    0.000000    0.000000    0.800000  0  0   0.6   1.0
1gauss    0.000000    0.000000    0.900000  1  0   0.6   1.0
1gauss    0.000000    0.000000    0.800000  1 -1   0.6   1.0
1gauss    0.000000    0.000000    0.800000  1 +1   0.6   1.0

