
&CONTROL
   prefix = 'alh'
   postfix = '_WanT'
   work_dir = './'
   verbosity = 'high'
/

&SUBSPACE
   dimwann = 41     
   win_max = 6.0  
   froz_max = 1.3
   maxiter_dis = 2000
/

&LOCALIZATION
   a_condmin = 5.0
   wannier_thr = 1.0e-6
   maxiter0_wan = 100, 
   maxiter1_wan = 50000, 
   ncg = 5      
/

WANNIER_CENTERS {alat}
1gauss    0.000000    0.000000   -0.750000  0  0   0.1     1.0
1gauss    0.000000    0.000000   -0.560000  1  0   0.1     1.0
1gauss    0.000000    0.000000   -0.750000  1 -1   0.1     1.0
1gauss    0.000000    0.000000   -0.750000  1 +1   0.1     1.0
1gauss    0.000000    0.000000   -0.375000  0  0   0.1     1.0
1gauss    0.000000    0.000000   -0.187000  1  0   0.1     1.0
1gauss    0.000000    0.000000   -0.375000  1 -1   0.1     1.0
1gauss    0.000000    0.000000   -0.375000  1 +1   0.1     1.0
1gauss    0.000000    0.000000    0.000000  0  0   0.1     1.0
1gauss    0.000000    0.000000    0.187000  1  0   0.1     1.0
1gauss    0.000000    0.000000    0.000000  1 -1   0.1     1.0
1gauss    0.000000    0.000000    0.000000  1 +1   0.1     1.0
1gauss    0.000000    0.000000    0.375000  0  0   0.1     1.0
1gauss    0.000000    0.000000    0.560000  1  0   0.1     1.0
1gauss    0.000000    0.000000    0.375000  1 -1   0.1     1.0
1gauss    0.000000    0.000000    0.375000  1 +1   0.1     1.0
1gauss   -0.027799    0.000000    0.755375  0  0   0.1     0.0
1gauss   -0.027799    0.000000    0.755375  1  0   0.1     0.0
1gauss   -0.027799    0.000000    0.755375  1 -1   0.1     0.0
1gauss   -0.027799    0.000000    0.755375  1 +1   0.1     0.0
1gauss    0.192690    0.000000    0.937500  0  0   0.1     0.0
1gauss   -0.027799    0.000000    1.119624  0  0   0.1     0.0
1gauss   -0.027799    0.000000    1.119624  1  0   0.1     0.0
1gauss   -0.027799    0.000000    1.119624  1 -1   0.1     0.0
1gauss   -0.027799    0.000000    1.119624  1 +1   0.1     0.0
1gauss    0.000000    0.000000    1.500000  0  0   0.1     1.0
1gauss    0.000000    0.000000    1.687000  1  0   0.1     1.0
1gauss    0.000000    0.000000    1.500000  1 -1   0.1     1.0
1gauss    0.000000    0.000000    1.500000  1 +1   0.1     1.0
1gauss    0.000000    0.000000    1.875000  0  0   0.1     1.0
1gauss    0.000000    0.000000    2.060000  1  0   0.1     1.0
1gauss    0.000000    0.000000    1.875000  1 -1   0.1     1.0
1gauss    0.000000    0.000000    1.875000  1 +1   0.1     1.0
1gauss    0.000000    0.000000    2.250000  0  0   0.1     1.0
1gauss    0.000000    0.000000    2.437000  1  0   0.1     1.0
1gauss    0.000000    0.000000    2.250000  1 -1   0.1     1.0
1gauss    0.000000    0.000000    2.250000  1 +1   0.1     1.0
1gauss    0.000000    0.000000    2.625000  0  0   0.1     1.0
1gauss    0.000000    0.000000    2.812000  1  0   0.1     1.0
1gauss    0.000000    0.000000    2.625000  1 -1   0.1     1.0
1gauss    0.000000    0.000000    2.625000  1 +1   0.1     1.0

1gauss    0.192690    0.000000    0.937500  1  0   0.1     0.0
