Guanine Single molecule
US Pseudopotentials

   &CONTROL
      calculation = 'relax',
      restart_mode='from_scratch',
      prefix='guanine',
      nstep=2000,
      tprnfor = .true.,
      pseudo_dir = '../pseudo/',
      outdir = './SCRATCH'
      wf_collect = .TRUE.
   /
   &SYSTEM
      ibrav=8, 
      celldm(1)=42.0,
      celldm(2)=1.0,
      celldm(3)=1.0,
      nat=16,
      ntyp=4,
      ecutwfc=25.0,
      ecutrho=200.0,
      occupations='fixed',
   /
   &ELECTRONS
      electron_maxstep = 50,
      mixing_mode = 'plain',
      mixing_beta = 0.3,
      conv_thr =  1.0d-8,
   /
   &IONS
   /
ATOMIC_SPECIES
 C   12.01   C.pbe-van_bm.UPF
 N   14.01   N.pbe-van_bm.UPF
 H   1.001   H.pbe-van_bm.UPF
 O   16.00   O.pbe-van_bm.UPF
ATOMIC_POSITIONS (angstrom)
N       -5.560570365   1.662902187  -2.513102389
C       -5.339108380   1.458943278  -1.154582481
N       -4.057236013   1.434946524  -0.845846537
C       -3.397429532   1.631712311  -2.053533062
C       -1.988921110   1.704199177  -2.355393194
O       -0.987707323   1.612510461  -1.627577745
N       -1.808320505   1.922574792  -3.762391018
C       -2.800532668   2.050213234  -4.714123110
N       -2.400882367   2.255003774  -6.000320168
N       -4.098465218   1.983106066  -4.430788289
C       -4.320810940   1.776399834  -3.108527382
H       -6.457348668   1.720117958  -2.992786008
H       -6.171561075   1.337283766  -0.458822002
H       -0.827851700   1.985959011  -4.059814016
H       -3.127603215   2.348519641  -6.700203168
H       -1.419567653   2.313759654  -6.270118783
K_POINTS {crystal}   
1 
0.000 0.000  0.000   1.0
