Carbon dimer chain; USPP
4 atoms per cell
 &CONTROL
    calculation = 'nscf'
    restart_mode='from_scratch',
    outdir='./LEADS/'
    prefix='chain4',
    tstress = .false.
    tprnfor = .true.
    pseudo_dir = './'
    etot_conv_thr=1.0e-4,
    forc_conv_thr=1.0e-3
 /
 &SYSTEM    
      ibrav=8,
      celldm(1)=10.355703,
      celldm(2)=2.25,
      celldm(3)=2.25,
      nat=4,
      ntyp=1,
      ecutwfc=20.0,
      ecutrho=200.0,
      occupations='smearing',
      smearing='gaussian',
      degauss=0.01,
      nbnd = 40
 /
 &ELECTRONS
    electron_maxstep = 50,
    mixing_mode = 'plain'
    mixing_beta = 0.3 
    conv_thr =  1.0d-8
 /
ATOMIC_SPECIES
 C  12.011  C.pbe-van_bm.UPF
ATOMIC_POSITIONS (crystal)
C        0.00000000      0.00000000      0.00000000   1   1   1
C        0.22262770      0.00000000      0.00000000   1   1   1
C        0.50000000      0.00000000      0.00000000   1   1   1
C        0.72262770      0.00000000      0.00000000   1   1   1
K_POINTS {crystal}
4
0.000 0.000 0.000   0.125
0.250 0.000 0.000   0.125
0.500 0.000 0.000   0.125
0.750 0.000 0.000   0.125

 8 
0.000 0.000 0.000   0.125
0.125 0.000 0.000   0.125
0.250 0.000 0.000   0.125
0.375 0.000 0.000   0.125
0.500 0.000 0.000   0.125
0.625 0.000 0.000   0.125
0.750 0.000 0.000   0.125
0.875 0.000 0.000   0.125
