&inputpp
  prefix='chain4'
  outdir='./LEADS/'
  ascii = .FALSE.
  pseudo_dir = './'
  psfile(1) = 'C.blyp-mt.UPF'
  single_file = .FALSE.
  ascii = .FALSE.
/
