
&CONTROL
   prefix = 'chain8'
   postfix = '_WanT'
   work_dir = './COND/'
/

&SUBSPACE
   dimwann = 16   
   win_min = -22.0
   win_max =  -4.5
   alpha_dis = 0.5     
   maxiter_dis = 300   
   start_mode_dis = 'center_projections'
/

&LOCALIZATION
   maxiter0_wan = 10
   alpha0_wan = 0.5
   maxiter1_wan = 1000
   alpha1_wan = 0.5
   ncg = 9          
   nshells = 2       
   nwhich(1) = 1      
   nwhich(2) = 4      
   ordering_mode = 'none'
/

WANNIER_CENTERS {crystal}
1gauss    0.0556569  0.0000000  0.0000000     0  0  3    0.2
1gauss    0.0556569  0.0000000  0.0000000     1  0  3    0.2
1gauss    0.0556569  0.0000000  0.0000000     1  1  3    0.2
1gauss    0.1806569  0.0000000  0.0000000     0  0  3    0.2
1gauss    0.3056569  0.0000000  0.0000000     0  0  3    0.2
1gauss    0.3056569  0.0000000  0.0000000     1  0  3    0.2
1gauss    0.3056569  0.0000000  0.0000000     1  1  3    0.2
1gauss    0.4306569  0.0000000  0.0000000     0  0  3    0.2
1gauss    0.5556569  0.0000000  0.0000000     0  0  3    0.2
1gauss    0.5556569  0.0000000  0.0000000     1  0  3    0.2
1gauss    0.5556569  0.0000000  0.0000000     1  1  3    0.2
1gauss    0.6806569  0.0000000  0.0000000     0  0  3    0.2
1gauss    0.8056569  0.0000000  0.0000000     0  0  3    0.2
1gauss    0.8056569  0.0000000  0.0000000     1  0  3    0.2
1gauss    0.8056569  0.0000000  0.0000000     1  1  3    0.2
1gauss    0.9306569  0.0000000  0.0000000     0  0  3    0.2

