
&CONTROL
   prefix = 'chain8'
   postfix = '_WanT'
   work_dir = './COND/'
   verbosity = 'high'
!   projections = "from_file"
!   overlaps = "from_file"
/

&SUBSPACE
   dimwann = 32
   win_max = 3.5
   froz_min = -30.0
   froz_max =   -1.0
   alpha_dis = 0.5     
   maxiter_dis = 1000   
   start_mode_dis = 'center_projections'
/

&LOCALIZATION
!   start_mode_wan = "randomized"
!   a_condmin = 10.0
   maxiter0_wan = 100
   alpha0_wan = 0.3
   maxiter1_wan = 2000
   alpha1_wan = 0.3
   ncg = 5          
   nshells = 2       
   nwhich(1) = 1      
   nwhich(2) = 4      
   ordering_mode = 'none'
/

WANNIER_CENTERS {crystal}
atomic    1   0  0
atomic    1   1 -1
atomic    1   1  0 
atomic    1   1  1
atomic    2   0  0
atomic    2   1 -1
atomic    2   1  0 
atomic    2   1  1
atomic    3   0  0
atomic    3   1 -1
atomic    3   1  0 
atomic    3   1  1
atomic    4   0  0
atomic    4   1 -1
atomic    4   1  0 
atomic    4   1  1
atomic    5   0  0
atomic    5   1 -1
atomic    5   1  0 
atomic    5   1  1
atomic    6   0  0
atomic    6   1 -1
atomic    6   1  0 
atomic    6   1  1
atomic    7   0  0
atomic    7   1 -1
atomic    7   1  0 
atomic    7   1  1
atomic    8   0  0
atomic    8   1 -1
atomic    8   1  0 
atomic    8   1  1

1gauss    0.0556569  0.0000000  0.0000000     0  0  3    0.2
1gauss    0.0556569  0.0000000  0.0000000     1  0  3    0.2
1gauss    0.0556569  0.0000000  0.0000000     1  1  3    0.2
1gauss    0.1806569  0.0000000  0.0000000     0  0  3    0.2
1gauss    0.3056569  0.0000000  0.0000000     0  0  3    0.2
1gauss    0.3056569  0.0000000  0.0000000     1  0  3    0.2
1gauss    0.3056569  0.0000000  0.0000000     1  1  3    0.2
1gauss    0.4306569  0.0000000  0.0000000     0  0  3    0.2
1gauss    0.5556569  0.0000000  0.0000000     0  0  3    0.2
1gauss    0.5556569  0.0000000  0.0000000     1  0  3    0.2
1gauss    0.5556569  0.0000000  0.0000000     1  1  3    0.2
1gauss    0.6806569  0.0000000  0.0000000     0  0  3    0.2
1gauss    0.8056569  0.0000000  0.0000000     0  0  3    0.2
1gauss    0.8056569  0.0000000  0.0000000     1  0  3    0.2
1gauss    0.8056569  0.0000000  0.0000000     1  1  3    0.2
1gauss    0.9306569  0.0000000  0.0000000     0  0  3    0.2

