
 &INPUT
   prefix = 'silicon_US'
   postfix = '_WanT'
   work_dir = './'
   nkpts_in   = 7
   nkpts_max  = 500
 /
G   0.000  0.000  0.000
X   0.500  0.500  0.000
W   0.750  0.500  0.250
L   0.500  0.500  0.500
G   0.000  0.000  0.000
K   0.750  0.375  0.375
W   0.750  0.500  0.250

