# Crystalline GaAs
# Generation of the KSS file

# Number of datasets: 2-step calculation
ndtset 2

# Definition of the unit cell: fcc
acell 3*10.55             # Lattice constants (in atomic units)

rprim 0.0 0.5 0.5             # FCC primitive vectors
      0.5 0.0 0.5             # (to be scaled by acell)
      0.5 0.5 0.0

# Definition of the system
ntypat 2                      # Number of species
znucl  31 33                  # Z number of each species
natom  2                      # Number of atoms
typat  1 2                    # Type of each atom (index in znucl)
xred   0.00    0.00    0.00   # Reduced coordinates of atom 1
       0.25    0.25    0.25   # Reduced coordinates of atom 2

# Definition of the plane-wave basis set
ecut  9.0                     # Kinetic energy cut-off, in Hartree

# Definition of the SCF procedure
nstep 3000                    # Maximum number of SCF cycles

# Step 1: determine the ground state
iscf1    3                    # Algorithm: Anderson mixing of the potential
nband1  10                    # Number of bands
tolvrs1  1.0d-10             # Tolerance on wavefunctions to stop SCF cycles
kptopt1  1                    # Automatic generation of k-points
ngkpt1   4 4 4                # Number of grid points for k-point generation
prtden1  1                    # Store electronic density in a file

# Step 2: obtain the Kohn-Sham band structure
getden2    1                  # Read electronic density from step 1
iscf2     -2                  # Non self-consistent calculation
tolwfr2    1.0d-16            # Tolerance on wavefunctions
nband2     4                  # Number of bands for the system
kptopt2    0                  # Automatic generation of k-points
#ngkpt2     4 4 4              # Number of grid points for k-point generation
accesswff 3
symmorphi2 0                  # Disallow non-symmorphic operations (required)
istwfk2    216*1              # Wavefunction storage mode for each k-point
nkpt2 216
kpt2         -0.500000000   -0.500000000   -0.500000000       
             -0.333333333   -0.500000000   -0.500000000       
             -0.166666667   -0.500000000   -0.500000000       
              0.000000000   -0.500000000   -0.500000000       
              0.166666667   -0.500000000   -0.500000000       
              0.333333333   -0.500000000   -0.500000000       
             -0.500000000   -0.333333333   -0.500000000       
             -0.333333333   -0.333333333   -0.500000000       
             -0.166666667   -0.333333333   -0.500000000       
              0.000000000   -0.333333333   -0.500000000       
              0.166666667   -0.333333333   -0.500000000       
              0.333333333   -0.333333333   -0.500000000       
             -0.500000000   -0.166666667   -0.500000000       
             -0.333333333   -0.166666667   -0.500000000       
             -0.166666667   -0.166666667   -0.500000000       
              0.000000000   -0.166666667   -0.500000000       
              0.166666667   -0.166666667   -0.500000000       
              0.333333333   -0.166666667   -0.500000000       
             -0.500000000    0.000000000   -0.500000000       
             -0.333333333    0.000000000   -0.500000000       
             -0.166666667    0.000000000   -0.500000000       
              0.000000000    0.000000000   -0.500000000       
              0.166666667    0.000000000   -0.500000000       
              0.333333333    0.000000000   -0.500000000       
             -0.500000000    0.166666667   -0.500000000       
             -0.333333333    0.166666667   -0.500000000       
             -0.166666667    0.166666667   -0.500000000       
              0.000000000    0.166666667   -0.500000000       
              0.166666667    0.166666667   -0.500000000       
              0.333333333    0.166666667   -0.500000000       
             -0.500000000    0.333333333   -0.500000000       
             -0.333333333    0.333333333   -0.500000000       
             -0.166666667    0.333333333   -0.500000000       
              0.000000000    0.333333333   -0.500000000       
              0.166666667    0.333333333   -0.500000000       
              0.333333333    0.333333333   -0.500000000       
             -0.500000000   -0.500000000   -0.333333333       
             -0.333333333   -0.500000000   -0.333333333       
             -0.166666667   -0.500000000   -0.333333333       
              0.000000000   -0.500000000   -0.333333333       
              0.166666667   -0.500000000   -0.333333333       
              0.333333333   -0.500000000   -0.333333333       
             -0.500000000   -0.333333333   -0.333333333       
             -0.333333333   -0.333333333   -0.333333333       
             -0.166666667   -0.333333333   -0.333333333       
              0.000000000   -0.333333333   -0.333333333       
              0.166666667   -0.333333333   -0.333333333       
              0.333333333   -0.333333333   -0.333333333       
             -0.500000000   -0.166666667   -0.333333333       
             -0.333333333   -0.166666667   -0.333333333       
             -0.166666667   -0.166666667   -0.333333333       
              0.000000000   -0.166666667   -0.333333333       
              0.166666667   -0.166666667   -0.333333333       
              0.333333333   -0.166666667   -0.333333333       
             -0.500000000    0.000000000   -0.333333333       
             -0.333333333    0.000000000   -0.333333333       
             -0.166666667    0.000000000   -0.333333333       
              0.000000000    0.000000000   -0.333333333       
              0.166666667    0.000000000   -0.333333333       
              0.333333333    0.000000000   -0.333333333       
             -0.500000000    0.166666667   -0.333333333       
             -0.333333333    0.166666667   -0.333333333       
             -0.166666667    0.166666667   -0.333333333       
              0.000000000    0.166666667   -0.333333333       
              0.166666667    0.166666667   -0.333333333       
              0.333333333    0.166666667   -0.333333333       
             -0.500000000    0.333333333   -0.333333333       
             -0.333333333    0.333333333   -0.333333333       
             -0.166666667    0.333333333   -0.333333333       
              0.000000000    0.333333333   -0.333333333       
              0.166666667    0.333333333   -0.333333333       
              0.333333333    0.333333333   -0.333333333       
             -0.500000000   -0.500000000   -0.166666667       
             -0.333333333   -0.500000000   -0.166666667       
             -0.166666667   -0.500000000   -0.166666667       
              0.000000000   -0.500000000   -0.166666667       
              0.166666667   -0.500000000   -0.166666667       
              0.333333333   -0.500000000   -0.166666667       
             -0.500000000   -0.333333333   -0.166666667       
             -0.333333333   -0.333333333   -0.166666667       
             -0.166666667   -0.333333333   -0.166666667       
              0.000000000   -0.333333333   -0.166666667       
              0.166666667   -0.333333333   -0.166666667       
              0.333333333   -0.333333333   -0.166666667       
             -0.500000000   -0.166666667   -0.166666667       
             -0.333333333   -0.166666667   -0.166666667       
             -0.166666667   -0.166666667   -0.166666667       
              0.000000000   -0.166666667   -0.166666667       
              0.166666667   -0.166666667   -0.166666667       
              0.333333333   -0.166666667   -0.166666667       
             -0.500000000    0.000000000   -0.166666667       
             -0.333333333    0.000000000   -0.166666667       
             -0.166666667    0.000000000   -0.166666667       
              0.000000000    0.000000000   -0.166666667       
              0.166666667    0.000000000   -0.166666667       
              0.333333333    0.000000000   -0.166666667       
             -0.500000000    0.166666667   -0.166666667       
             -0.333333333    0.166666667   -0.166666667       
             -0.166666667    0.166666667   -0.166666667       
              0.000000000    0.166666667   -0.166666667       
              0.166666667    0.166666667   -0.166666667       
              0.333333333    0.166666667   -0.166666667       
             -0.500000000    0.333333333   -0.166666667       
             -0.333333333    0.333333333   -0.166666667       
             -0.166666667    0.333333333   -0.166666667       
              0.000000000    0.333333333   -0.166666667       
              0.166666667    0.333333333   -0.166666667       
              0.333333333    0.333333333   -0.166666667       
             -0.500000000   -0.500000000    0.000000000       
             -0.333333333   -0.500000000    0.000000000       
             -0.166666667   -0.500000000    0.000000000       
              0.000000000   -0.500000000    0.000000000       
              0.166666667   -0.500000000    0.000000000       
              0.333333333   -0.500000000    0.000000000       
             -0.500000000   -0.333333333    0.000000000       
             -0.333333333   -0.333333333    0.000000000       
             -0.166666667   -0.333333333    0.000000000       
              0.000000000   -0.333333333    0.000000000       
              0.166666667   -0.333333333    0.000000000       
              0.333333333   -0.333333333    0.000000000       
             -0.500000000   -0.166666667    0.000000000       
             -0.333333333   -0.166666667    0.000000000       
             -0.166666667   -0.166666667    0.000000000       
              0.000000000   -0.166666667    0.000000000       
              0.166666667   -0.166666667    0.000000000       
              0.333333333   -0.166666667    0.000000000       
             -0.500000000    0.000000000    0.000000000       
             -0.333333333    0.000000000    0.000000000       
             -0.166666667    0.000000000    0.000000000       
              0.000000000    0.000000000    0.000000000       
              0.166666667    0.000000000    0.000000000       
              0.333333333    0.000000000    0.000000000       
             -0.500000000    0.166666667    0.000000000       
             -0.333333333    0.166666667    0.000000000       
             -0.166666667    0.166666667    0.000000000       
              0.000000000    0.166666667    0.000000000       
              0.166666667    0.166666667    0.000000000       
              0.333333333    0.166666667    0.000000000       
             -0.500000000    0.333333333    0.000000000       
             -0.333333333    0.333333333    0.000000000       
             -0.166666667    0.333333333    0.000000000       
              0.000000000    0.333333333    0.000000000       
              0.166666667    0.333333333    0.000000000       
              0.333333333    0.333333333    0.000000000       
             -0.500000000   -0.500000000    0.166666667       
             -0.333333333   -0.500000000    0.166666667       
             -0.166666667   -0.500000000    0.166666667       
              0.000000000   -0.500000000    0.166666667       
              0.166666667   -0.500000000    0.166666667       
              0.333333333   -0.500000000    0.166666667       
             -0.500000000   -0.333333333    0.166666667       
             -0.333333333   -0.333333333    0.166666667       
             -0.166666667   -0.333333333    0.166666667       
              0.000000000   -0.333333333    0.166666667       
              0.166666667   -0.333333333    0.166666667       
              0.333333333   -0.333333333    0.166666667       
             -0.500000000   -0.166666667    0.166666667       
             -0.333333333   -0.166666667    0.166666667       
             -0.166666667   -0.166666667    0.166666667       
              0.000000000   -0.166666667    0.166666667       
              0.166666667   -0.166666667    0.166666667       
              0.333333333   -0.166666667    0.166666667       
             -0.500000000    0.000000000    0.166666667       
             -0.333333333    0.000000000    0.166666667       
             -0.166666667    0.000000000    0.166666667       
              0.000000000    0.000000000    0.166666667       
              0.166666667    0.000000000    0.166666667       
              0.333333333    0.000000000    0.166666667       
             -0.500000000    0.166666667    0.166666667       
             -0.333333333    0.166666667    0.166666667       
             -0.166666667    0.166666667    0.166666667       
              0.000000000    0.166666667    0.166666667       
              0.166666667    0.166666667    0.166666667       
              0.333333333    0.166666667    0.166666667       
             -0.500000000    0.333333333    0.166666667       
             -0.333333333    0.333333333    0.166666667       
             -0.166666667    0.333333333    0.166666667       
              0.000000000    0.333333333    0.166666667       
              0.166666667    0.333333333    0.166666667       
              0.333333333    0.333333333    0.166666667       
             -0.500000000   -0.500000000    0.333333333       
             -0.333333333   -0.500000000    0.333333333       
             -0.166666667   -0.500000000    0.333333333       
              0.000000000   -0.500000000    0.333333333       
              0.166666667   -0.500000000    0.333333333       
              0.333333333   -0.500000000    0.333333333       
             -0.500000000   -0.333333333    0.333333333       
             -0.333333333   -0.333333333    0.333333333       
             -0.166666667   -0.333333333    0.333333333       
              0.000000000   -0.333333333    0.333333333       
              0.166666667   -0.333333333    0.333333333       
              0.333333333   -0.333333333    0.333333333       
             -0.500000000   -0.166666667    0.333333333       
             -0.333333333   -0.166666667    0.333333333       
             -0.166666667   -0.166666667    0.333333333       
              0.000000000   -0.166666667    0.333333333       
              0.166666667   -0.166666667    0.333333333       
              0.333333333   -0.166666667    0.333333333       
             -0.500000000    0.000000000    0.333333333       
             -0.333333333    0.000000000    0.333333333       
             -0.166666667    0.000000000    0.333333333       
              0.000000000    0.000000000    0.333333333       
              0.166666667    0.000000000    0.333333333       
              0.333333333    0.000000000    0.333333333       
             -0.500000000    0.166666667    0.333333333       
             -0.333333333    0.166666667    0.333333333       
             -0.166666667    0.166666667    0.333333333       
              0.000000000    0.166666667    0.333333333       
              0.166666667    0.166666667    0.333333333       
              0.333333333    0.166666667    0.333333333       
             -0.500000000    0.333333333    0.333333333       
             -0.333333333    0.333333333    0.333333333       
             -0.166666667    0.333333333    0.333333333       
              0.000000000    0.333333333    0.333333333       
              0.166666667    0.333333333    0.333333333       
              0.333333333    0.333333333    0.333333333       
