
 &INPUT
   prefix = 'silicon'
   postfix = '_WanT'
   work_dir = './'
   nkpts_in   = 6
   nkpts_max  = 500
 /
L
0.0 0.5 0.0
G
0.0 0.0 0.0
X
0.5 0.0 0.5
U
0.625 0.25 0.625
K
0.375  0.375  0.75
G
0.0 0.0 0.0

