&inputpp
  prefix='silicon'
  nk(1)=4,
  nk(2)=4,
  nk(3)=4,
  s0(1)=0.0,
  s0(2)=0.0,
  s0(3)=0.0
/
