

&CONTROL
    prefix = 'silicon'
    postfix = '_WanT'
    work_dir = './SCRATCH'
    dftdata_fmt = 'pw_export'
/

&SUBSPACE
    dimwann  = 4         
    win_max  = 6.0
/

&LOCALIZATION
    maxiter0_wan = 100, 
    maxiter1_wan = 8400, 
    ncg = 5                         
    wannier_thr = 1.e-8
/

WANNIER_CENTERS {crystal}
1gauss   0.1250  0.1250  0.1250    -1  1    1.0                 ! (centers for valence)
1gauss   0.1250 -0.1250 -0.1250    -1  2    1.0
1gauss  -0.1250  0.1250 -0.1250    -1  3    1.0
1gauss  -0.1250 -0.1250  0.1250    -1  4    1.0

