

&CONTROL
    prefix = 'silicon'
    postfix = '_WanT'
    work_dir = './'
/

&SUBSPACE
    dimwann = 8          
    win_max =  14.8            
    alpha_dis = 0.5               
    maxiter_dis = 200
    start_mode_dis = "center_projections"
/

&LOCALIZATION
    maxiter0_wan = 100, 
    maxiter1_wan = 4000, 
    ncg = 5                         
    nshells = 1                    
    nwhich(1) = 1                 
/

WANNIER_CENTERS {crystal}
1gauss   0.1250  0.1250  0.1250    -1  1  3   1.0                 ! (centers for valence)
1gauss   0.1250 -0.1250 -0.1250    -1  2  3   1.0
1gauss  -0.1250  0.1250 -0.1250    -1  3  3   1.0
1gauss  -0.1250 -0.1250  0.1250    -1  4  3   1.0
2gauss   0.0625  0.0625  0.0625    0.1875  0.1875  0.1875  1.5    ! (centers for conduction)
2gauss  -0.1875  0.0625  0.0625   -0.5625  0.1875  0.1875  1.5
2gauss   0.0625 -0.1875  0.0625    0.1875 -0.5625  0.1875  1.5
2gauss   0.0625  0.0625 -0.1875    0.1875  0.1875 -0.5625  1.5

