

&CONTROL
    prefix      = 'gaas'
    postfix     = '_WanT'
    work_dir    = './SCRATCH'
    verbosity   = 'high'
/

&SUBSPACE
    dimwann  = 4         
/

&LOCALIZATION
    maxiter0_wan = 100, 
    maxiter1_wan = 4000
/

WANNIER_CENTERS {crystal}
1gauss   0.1250  0.1250  0.1250    -1  1    1.0  
1gauss   0.1250 -0.1250 -0.1250    -1  2    1.0
1gauss  -0.1250  0.1250 -0.1250    -1  3    1.0
1gauss  -0.1250 -0.1250  0.1250    -1  4    1.0

