
 &INPUT
   prefix = 'si111'
   postfix = '_WanT'
   work_dir = './SCRATCH/'
   nkpts_in   = 6
   nkpts_max  = 500
 /
L   0.000  0.500  0.000
G   0.000  0.000  0.000
X   0.500  0.000  0.500
U   0.625  0.250  0.625
K   0.375  0.375  0.750
G   0.000  0.000  0.000


