Si bulk in the (111) cell

 &CONTROL
    calculation = 'nscf'
    restart_mode='from_scratch',
    prefix='si111',
    tprnfor = .true.
    pseudo_dir = '../pseudo/',
    outdir = './SCRATCH/'
    wf_collect = .TRUE.
    verbosity = "high"
 /
 &SYSTEM    
    ibrav=  8, 
    celldm(1) =7.2549,  
    celldm(2) =1.7320,  
    celldm(3) =2.4495,
    nat=  12, 
    ntyp= 1,
    ecutwfc =25.0,
    nbnd= 70
    nosym= .true.
    noinv= .true.
 /
 &ELECTRONS
    mixing_mode = 'plain'
    mixing_beta = 0.7 
    conv_thr =  1.0d-8
 /
ATOMIC_SPECIES
 Si   28.086  Si.vbc.UPF
ATOMIC_POSITIONS (angstrom)
Si    0.00000   0.00000   0.00000 
Si    1.91955   3.32476   0.00000 
Si    0.00000   2.21650   0.78365 
Si    1.91955   5.54126   0.78365 
Si    0.00000   2.21650   3.13461 
Si    1.91955   5.54126   3.13461 
Si    3.83910   4.43301   3.91826 
Si    1.91955   1.10825   3.91826 
Si    3.83910   4.43301   6.26922 
Si    1.91955   1.10825   6.26922 
Si    1.91955   3.32476   7.05288 
Si    3.83910   6.64952   7.05288 
K_POINTS {automatic}
  8 4 4   0 0 0
