
 &INPUT
   prefix = 'silicon_zb'
   postfix = '_WanT'
   work_dir = './'
   datatype = 'modulus'
   output_fmt = 'xsf'
   wann = '1-8'
   r1min = -1.0
   r1max =  1.0
   r2min = -1.0
   r2max =  1.0
 /
