&inputpp
  prefix='silicon_zb'
  outdir='./'
  ascii = .FALSE.
  pseudo_dir = './'
  psfile(1) = 'Si.vbc.UPF'
  single_file = .FALSE.
  ascii = .FALSE.
/

