bulk graphite

   &CONTROL
      calculation = 'scf',
      restart_mode='from_scratch',
      verbosity='default',
      prefix='graphite',
      nstep=100,
      tstress = .false.,
      tprnfor = .true.,
      pseudo_dir = '../pseudo/',
      outdir = './SCRATCH'
   /
   &SYSTEM
      ibrav=4,
      celldm(1)=4.582348       ! = 1.40 * sqrt(3) Ang
      celldm(3)=2.763031       ! ~= 6.7 Ang
      nat=4,
      ntyp=1,
      ecutwfc=25.0,
      ecutrho=200.0,
      occupations='smearing',
      smearing='gaussian',
      degauss=0.01,
   /
   &ELECTRONS
      electron_maxstep = 100,
      mixing_mode = 'plain',
      mixing_beta = 0.3,
      conv_thr =  1.0d-8,
   /
ATOMIC_SPECIES
  C    12.011    C.pbe-van_bm.UPF
ATOMIC_POSITIONS {alat}
C            0.0000000   0.0000000   0.0000000
C            0.5000000   0.2886750   0.0000000
C            0.5000000   0.2886750   1.3815155
C            1.0000000   0.5773500   1.3815155
K_POINTS {automatic}
   16 16 8    1  1  1

