
&CONTROL
   prefix = 'si111'
   postfix = '_WanT'
   work_dir = './SCRATCH/'
!   restart_mode= 'restart'
/

&SUBSPACE
   froz_max = 7.8
   dimwann = 48
   maxiter_dis = 1000
/

&LOCALIZATION
!   a_condmin = 10.0
   maxiter0_wan = 500
   maxiter1_wan = 1500
   nprint_wan   = 50
   nsave_wan    = 50
   ncg = 5
/

WANNIER_CENTERS {angstrom}
1gauss      0.000   1.108   0.392 0  0    0.5   1.0 
1gauss      0.960   2.771   0.392 0  0    0.5   1.0 
1gauss      1.920   4.433   0.392 0  0    0.5   1.0 
1gauss      2.879   2.771   0.392 0  0    0.5   1.0 
1gauss      0.000   2.217   1.959 0  0    0.5   1.0 
1gauss      1.920   5.541   1.959 0  0    0.5   1.0 
1gauss      0.960   6.095   0.392 0  0    0.5   1.0 
1gauss      2.879   6.095   0.392 0  0    0.5   1.0 
1gauss      0.960   1.662   3.526 0  0    0.5   1.0 
1gauss      2.879   4.987   3.526 0  0    0.5   1.0 
1gauss      1.920   6.649   3.526 0  0    0.5   1.0 
1gauss      3.839   4.433   5.094 0  0    0.5   1.0 
1gauss      3.839   3.325   3.526 0  0    0.5   1.0 
1gauss      4.799   4.987   3.526 0  0    0.5   1.0 
1gauss      1.920   1.108   5.094 0  0    0.5   1.0 
1gauss      2.879   1.662   3.526 0  0    0.5   1.0 
1gauss      2.879   3.879   6.661 0  0    0.5   1.0 
1gauss      3.839   5.541   6.661 0  0    0.5   1.0 
1gauss      4.799   3.879   6.661 0  0    0.5   1.0 
1gauss      1.920   2.217   6.661 0  0    0.5   1.0 
1gauss      2.879   7.204   6.661 0  0    0.5   1.0 
1gauss      4.799   7.204   6.661 0  0    0.5   1.0 
1gauss      1.967   3.274   8.054 0  0    0.5   1.0 
1gauss      3.728   6.622   8.000 0  0    0.5   1.0 
2gauss      0.000  -0.000  -0.000        0.000   2.216   0.784  0.5  0.0 
2gauss      1.920   3.325   0.000        3.839   2.216   0.784  0.5  0.0 
2gauss      1.920   3.325   0.000        0.000   2.216   0.784  0.5  0.0 
2gauss      1.920   3.325   0.000        1.920   5.541   0.784  0.5  0.0 
2gauss      0.000   2.216   0.784        0.000   2.216   3.135  0.5  0.0 
2gauss      1.920   5.541   0.784        0.000   6.649   0.000  0.5  0.0 
2gauss      1.920   5.541   0.784        3.839   6.649   0.000  0.5  0.0 
2gauss      1.920   5.541   0.784        1.920   5.541   3.135  0.5  0.0 
2gauss      0.000   2.216   3.135        1.920   1.108   3.918  0.5  0.0 
2gauss      1.920   5.541   3.135        3.839   4.433   3.918  0.5  0.0 
2gauss      1.920   5.541   3.135        1.920   7.757   3.918  0.5  0.0 
2gauss      1.920   1.108   3.918        3.839   2.216   3.135  0.5  0.0 
2gauss      1.920   1.108   3.918        1.920   1.108   6.269  0.5  0.0 
2gauss      3.839   4.433   3.918        3.839   2.216   3.135  0.5  0.0 
2gauss      3.839   4.433   3.918        5.759   5.541   3.135  0.5  0.0 
2gauss      3.839   4.433   3.918        3.839   4.433   6.269  0.5  0.0 
2gauss      1.920   1.108   6.269        1.920   3.325   7.053  0.5  0.0 
2gauss      3.839   4.433   6.269        5.759   3.325   7.053  0.5  0.0 
2gauss      3.839   4.433   6.269        1.920   3.325   7.053  0.5  0.0 
2gauss      3.839   4.433   6.269        3.839   6.650   7.053  0.5  0.0 
2gauss      3.839   6.650   7.053        5.759   7.757   6.269  0.5  0.0 
2gauss      3.839   6.650   7.053        1.920   7.757   6.269  0.5  0.0 
2gauss      1.920   3.325   7.053        1.920   3.325   9.404  0.5  0.0 
2gauss      3.839   6.650   7.053        3.839   6.650   9.404  0.5  0.0 

