
&CONTROL
   prefix = 'cmplx'
   postfix = '_WanT'
   work_dir = './SCRATCH/'
!   restart_mode = "restart"
/

&SUBSPACE
   dimwann = 49
   win_max = 200
   froz_max = 0.25    ! Efermi
   maxiter_dis = 2000
/

&LOCALIZATION
   a_condmin = 5.0
   wannier_thr = 1.0e-6
   maxiter0_wan = 100, 
   maxiter1_wan = 10000, 
!   maxiter0_wan = 10, 
!   maxiter1_wan = 10, 
   ncg = 5      
/

WANNIER_CENTERS {alat}
1gauss    0.000000    0.000000    0.000000  1 -1   0.5     1.0
1gauss    0.000000    0.000000    0.000000  1  1   0.5     1.0
1gauss    0.250000    0.000000    0.000000  1 -1   0.5     1.0
1gauss    0.250000    0.000000    0.000000  1  1   0.5     1.0
1gauss    0.500000    0.000000    0.000000  1 -1   0.5     1.0
1gauss    0.500000    0.000000    0.000000  1  1   0.5     1.0
1gauss    0.750000    0.000000    0.000000  1 -1   0.5     1.0
1gauss    0.750000    0.000000    0.000000  1  1   0.5     1.0
1gauss    0.000000    0.250000    0.000000  1 -1   0.5     1.0
1gauss    0.000000    0.250000    0.000000  1  1   0.5     1.0
1gauss    0.250000    0.250000    0.000000  1 -1   0.5     1.0
1gauss    0.250000    0.250000    0.000000  1  1   0.5     1.0
1gauss    0.500000    0.250000    0.000000  1 -1   0.5     1.0
1gauss    0.500000    0.250000    0.000000  1  1   0.5     1.0
1gauss    0.750000    0.250000    0.000000  1 -1   0.5     1.0
1gauss    0.750000    0.250000    0.000000  1  1   0.5     1.0
1gauss    0.000000    0.500000    0.000000  1 -1   0.5     1.0
1gauss    0.000000    0.500000    0.000000  1  1   0.5     1.0
1gauss    0.250000    0.500000    0.000000  1 -1   0.5     1.0
1gauss    0.250000    0.500000    0.000000  1  1   0.5     1.0
1gauss    0.500000    0.500000    0.000000  1 -1   0.5     1.0
1gauss    0.500000    0.500000    0.000000  1  1   0.5     1.0
1gauss    0.750000    0.500000    0.000000  1 -1   0.5     1.0
1gauss    0.750000    0.500000    0.000000  1  1   0.5     1.0
1gauss    0.000000    0.750000    0.000000  1 -1   0.5     1.0
1gauss    0.000000    0.750000    0.000000  1  1   0.5     1.0
1gauss    0.250000    0.750000    0.000000  1 -1   0.5     1.0
1gauss    0.250000    0.750000    0.000000  1  1   0.5     1.0
1gauss    0.500000    0.750000    0.000000  1 -1   0.5     1.0
1gauss    0.500000    0.750000    0.000000  1  1   0.5     1.0
1gauss    0.750000    0.750000    0.000000  1 -1   0.5     1.0
1gauss    0.750000    0.750000    0.000000  1  1   0.5     1.0
1gauss    0.125000    0.125000    0.000000  0  0   0.5     1.0
1gauss    0.375000    0.125000    0.000000  0  0   0.5     1.0
1gauss    0.625000    0.125000    0.000000  0  0   0.5     1.0
1gauss    0.875000    0.125000    0.000000  0  0   0.5     1.0
1gauss    0.125000    0.375000    0.000000  0  0   0.5     1.0
1gauss    0.375000    0.375000    0.000000  0  0   0.5     1.0
1gauss    0.625000    0.375000    0.000000  0  0   0.5     1.0
1gauss    0.875000    0.375000    0.000000  0  0   0.5     1.0
1gauss    0.125000    0.625000    0.000000  0  0   0.5     1.0
1gauss    0.375000    0.625000    0.000000  0  0   0.5     1.0
1gauss    0.625000    0.625000    0.000000  0  0   0.5     1.0
1gauss    0.875000    0.625000    0.000000  0  0   0.5     1.0
1gauss    0.125000    0.875000    0.000000  0  0   0.5     1.0
1gauss    0.375000    0.875000    0.000000  0  0   0.5     1.0
1gauss    0.625000    0.875000    0.000000  0  0   0.5     1.0
1gauss    0.875000    0.875000    0.000000  0  0   0.5     1.0
1gauss    0.500000    0.500000    0.260000  0  0   0.5     0.0
