copper FCC bulk pw91
3d in valence
 &CONTROL
    calculation = 'nscf'
    restart_mode='from_scratch',
    prefix='copper',
    tprnfor = .FALSE.
    pseudo_dir = './'
 /
 &SYSTEM
      ibrav=2,
      celldm(1)=6.9678
      nat=1,
      ntyp=1,
      ecutwfc=130,
      ecutrho=520,
      occupations='smearing',
      smearing='gaussian',
      degauss=0.006,
 /
 &ELECTRONS
    electron_maxstep = 50,
    mixing_mode = 'plain'
    mixing_beta = 0.3
    conv_thr =  1.0d-8
 /
ATOMIC_SPECIES
 Cu  63.546  Cu.pw91-cpi.UPF
ATOMIC_POSITIONS (crystal)
Cu   0.00000000      0.00000000      0.00000000
K_POINTS (crystal)
194
   0.00000  0.00000  0.00000   1.0 
   0.01042  0.01042  0.00000   1.0 
   0.02083  0.02083  0.00000   1.0 
   0.03125  0.03125  0.00000   1.0 
   0.04167  0.04167  0.00000   1.0 
   0.05208  0.05208  0.00000   1.0 
   0.06250  0.06250  0.00000   1.0 
   0.07292  0.07292  0.00000   1.0 
   0.08333  0.08333  0.00000   1.0 
   0.09375  0.09375  0.00000   1.0 
   0.10417  0.10417  0.00000   1.0 
   0.11458  0.11458  0.00000   1.0 
   0.12500  0.12500  0.00000   1.0 
   0.13542  0.13542  0.00000   1.0 
   0.14583  0.14583  0.00000   1.0 
   0.15625  0.15625  0.00000   1.0 
   0.16667  0.16667  0.00000   1.0 
   0.17708  0.17708  0.00000   1.0 
   0.18750  0.18750  0.00000   1.0 
   0.19792  0.19792  0.00000   1.0 
   0.20833  0.20833  0.00000   1.0 
   0.21875  0.21875  0.00000   1.0 
   0.22917  0.22917  0.00000   1.0 
   0.23958  0.23958  0.00000   1.0 
   0.25000  0.25000  0.00000   1.0 
   0.26042  0.26042  0.00000   1.0 
   0.27083  0.27083  0.00000   1.0 
   0.28125  0.28125  0.00000   1.0 
   0.29167  0.29167  0.00000   1.0 
   0.30208  0.30208  0.00000   1.0 
   0.31250  0.31250  0.00000   1.0 
   0.32292  0.32292  0.00000   1.0 
   0.33333  0.33333  0.00000   1.0 
   0.34375  0.34375  0.00000   1.0 
   0.35417  0.35417  0.00000   1.0 
   0.36458  0.36458  0.00000   1.0 
   0.37500  0.37500  0.00000   1.0 
   0.38542  0.38542  0.00000   1.0 
   0.39583  0.39583  0.00000   1.0 
   0.40625  0.40625  0.00000   1.0 
   0.41667  0.41667  0.00000   1.0 
   0.42708  0.42708  0.00000   1.0 
   0.43750  0.43750  0.00000   1.0 
   0.44792  0.44792  0.00000   1.0 
   0.45833  0.45833  0.00000   1.0 
   0.46875  0.46875  0.00000   1.0 
   0.47917  0.47917  0.00000   1.0 
   0.50000  0.50000  0.00000   1.0 
   0.50000  0.51042  0.01042   1.0 
   0.50000  0.52083  0.02083   1.0 
   0.50000  0.53125  0.03125   1.0 
   0.50000  0.54167  0.04167   1.0 
   0.50000  0.55208  0.05208   1.0 
   0.50000  0.56250  0.06250   1.0 
   0.50000  0.57292  0.07292   1.0 
   0.50000  0.58333  0.08333   1.0 
   0.50000  0.59375  0.09375   1.0 
   0.50000  0.60417  0.10417   1.0 
   0.50000  0.61458  0.11458   1.0 
   0.50000  0.62500  0.12500   1.0 
   0.50000  0.63542  0.13542   1.0 
   0.50000  0.64583  0.14583   1.0 
   0.50000  0.65625  0.15625   1.0 
   0.50000  0.66667  0.16667   1.0 
   0.50000  0.67708  0.17708   1.0 
   0.50000  0.68750  0.18750   1.0 
   0.50000  0.69792  0.19792   1.0 
   0.50000  0.70833  0.20833   1.0 
   0.50000  0.71875  0.21875   1.0 
   0.50000  0.72917  0.22917   1.0 
   0.50000  0.75000  0.25000   1.0 
   0.48529  0.74265  0.24265   1.0 
   0.47059  0.73529  0.23529   1.0 
   0.45588  0.72794  0.22794   1.0 
   0.44118  0.72059  0.22059   1.0 
   0.42647  0.71324  0.21324   1.0 
   0.41176  0.70588  0.20588   1.0 
   0.39706  0.69853  0.19853   1.0 
   0.38235  0.69118  0.19118   1.0 
   0.36765  0.68382  0.18382   1.0 
   0.35294  0.67647  0.17647   1.0 
   0.33824  0.66912  0.16912   1.0 
   0.32353  0.66176  0.16176   1.0 
   0.30882  0.65441  0.15441   1.0 
   0.29412  0.64706  0.14706   1.0 
   0.27941  0.63971  0.13971   1.0 
   0.26471  0.63235  0.13235   1.0 
   0.25000  0.62500  0.12500   1.0 
   0.23529  0.61765  0.11765   1.0 
   0.22059  0.61029  0.11029   1.0 
   0.20588  0.60294  0.10294   1.0 
   0.19118  0.59559  0.09559   1.0 
   0.17647  0.58824  0.08824   1.0 
   0.16176  0.58088  0.08088   1.0 
   0.14706  0.57353  0.07353   1.0 
   0.13235  0.56618  0.06618   1.0 
   0.11765  0.55882  0.05882   1.0 
   0.10294  0.55147  0.05147   1.0 
   0.08824  0.54412  0.04412   1.0 
   0.07353  0.53676  0.03676   1.0 
   0.05882  0.52941  0.02941   1.0 
   0.04412  0.52206  0.02206   1.0 
   0.02941  0.51471  0.01471   1.0 
   0.00000  0.50000  0.00000   1.0 
   0.00000  0.48780  0.00000   1.0 
   0.00000  0.47561  0.00000   1.0 
   0.00000  0.46341  0.00000   1.0 
   0.00000  0.45122  0.00000   1.0 
   0.00000  0.43902  0.00000   1.0 
   0.00000  0.42683  0.00000   1.0 
   0.00000  0.41463  0.00000   1.0 
   0.00000  0.40244  0.00000   1.0 
   0.00000  0.39024  0.00000   1.0 
   0.00000  0.37805  0.00000   1.0 
   0.00000  0.36585  0.00000   1.0 
   0.00000  0.35366  0.00000   1.0 
   0.00000  0.34146  0.00000   1.0 
   0.00000  0.32927  0.00000   1.0 
   0.00000  0.31707  0.00000   1.0 
   0.00000  0.30488  0.00000   1.0 
   0.00000  0.29268  0.00000   1.0 
   0.00000  0.28049  0.00000   1.0 
   0.00000  0.26829  0.00000   1.0 
   0.00000  0.25610  0.00000   1.0 
   0.00000  0.24390  0.00000   1.0 
   0.00000  0.23171  0.00000   1.0 
   0.00000  0.21951  0.00000   1.0 
   0.00000  0.20732  0.00000   1.0 
   0.00000  0.19512  0.00000   1.0 
   0.00000  0.18293  0.00000   1.0 
   0.00000  0.17073  0.00000   1.0 
   0.00000  0.15854  0.00000   1.0 
   0.00000  0.14634  0.00000   1.0 
   0.00000  0.13415  0.00000   1.0 
   0.00000  0.12195  0.00000   1.0 
   0.00000  0.10976  0.00000   1.0 
   0.00000  0.09756  0.00000   1.0 
   0.00000  0.08537  0.00000   1.0 
   0.00000  0.07317  0.00000   1.0 
   0.00000  0.06098  0.00000   1.0 
   0.00000  0.04878  0.00000   1.0 
   0.00000  0.03659  0.00000   1.0 
   0.00000  0.02439  0.00000   1.0 
   0.00000  0.00000  0.00000   1.0 
   0.00735  0.01471  0.00735   1.0 
   0.01471  0.02941  0.01471   1.0 
   0.02206  0.04412  0.02206   1.0 
   0.02941  0.05882  0.02941   1.0 
   0.03676  0.07353  0.03676   1.0 
   0.04412  0.08824  0.04412   1.0 
   0.05147  0.10294  0.05147   1.0 
   0.05882  0.11765  0.05882   1.0 
   0.06618  0.13235  0.06618   1.0 
   0.07353  0.14706  0.07353   1.0 
   0.08088  0.16176  0.08088   1.0 
   0.08824  0.17647  0.08824   1.0 
   0.09559  0.19118  0.09559   1.0 
   0.10294  0.20588  0.10294   1.0 
   0.11029  0.22059  0.11029   1.0 
   0.11765  0.23529  0.11765   1.0 
   0.12500  0.25000  0.12500   1.0 
   0.13235  0.26471  0.13235   1.0 
   0.13971  0.27941  0.13971   1.0 
   0.14706  0.29412  0.14706   1.0 
   0.15441  0.30882  0.15441   1.0 
   0.16176  0.32353  0.16176   1.0 
   0.16912  0.33824  0.16912   1.0 
   0.17647  0.35294  0.17647   1.0 
   0.18382  0.36765  0.18382   1.0 
   0.19118  0.38235  0.19118   1.0 
   0.19853  0.39706  0.19853   1.0 
   0.20588  0.41176  0.20588   1.0 
   0.21324  0.42647  0.21324   1.0 
   0.22059  0.44118  0.22059   1.0 
   0.22794  0.45588  0.22794   1.0 
   0.23529  0.47059  0.23529   1.0 
   0.24265  0.48529  0.24265   1.0 
   0.25000  0.50000  0.25000   1.0 
   0.25735  0.51471  0.25735   1.0 
   0.26471  0.52941  0.26471   1.0 
   0.27206  0.54412  0.27206   1.0 
   0.27941  0.55882  0.27941   1.0 
   0.28676  0.57353  0.28676   1.0 
   0.29412  0.58824  0.29412   1.0 
   0.30147  0.60294  0.30147   1.0 
   0.30882  0.61765  0.30882   1.0 
   0.31618  0.63235  0.31618   1.0 
   0.32353  0.64706  0.32353   1.0 
   0.33088  0.66176  0.33088   1.0 
   0.33824  0.67647  0.33824   1.0 
   0.34559  0.69118  0.34559   1.0 
   0.35294  0.70588  0.35294   1.0 
   0.36029  0.72059  0.36029   1.0 
   0.37500  0.75000  0.37500   1.0 
