
 &INPUT
   prefix = 'gold'
   postfix = '_WanT'
!   fileout = 'gold_WanT_bands_NN.dat'
!   use_nn(3) = .TRUE.
   work_dir = './SCRATCH/'
   nkpts_in  = 2
   nkpts_max = 100
 /
G   0.0 0.0 0.0
Z   0.0 0.0 0.5
