
 &INPUT
   prefix = 'gold1'
   postfix = '_WanT'
   work_dir = './'
   nkpts_in  = 2
   nkpts_max = 100
   unitary_thr = 1.d-4
 /
G
0.0 0.0 0.0
Z
0.0 0.0 0.5
