
 &INPUT
   prefix = 'copper'
   postfix = '_WanT'
   work_dir = './SCRATCH'
   output_fmt = 'cube'
   wann = '1,4'
   r1min =  -1.0
   r1max =   1.0
   r2min =  -1.0
   r2max =   1.0
   r3min =  -1.0
   r3max =   1.0
 /
