graphene sheet

   &CONTROL
      calculation = 'nscf',
      restart_mode='from_scratch',
      verbosity='default',
      prefix='graphene',
      nstep=100,
      tstress = .false.,
      tprnfor = .true.,
      pseudo_dir = '../pseudo/',
      outdir = './SCRATCH/'
   /
   &SYSTEM
      ibrav=4,
      celldm(1)=4.582348       ! = 1.40 * sqrt(3) Ang
      celldm(3)=8.000000,
      nat=2,
      ntyp=1,
      ecutwfc=40.0,
      ecutrho=160.0,
      occupations='smearing',
      smearing='gaussian',
      degauss=0.01,
      nspin=1,
      nbnd=10 
   /
   &ELECTRONS
      electron_maxstep = 100,
      mixing_mode = 'plain',
      mixing_beta = 0.3,
      conv_thr =  1.0d-8,
   /
ATOMIC_SPECIES
  C    12.011    C.blyp-mt.UPF
ATOMIC_POSITIONS {alat}
C    0.0    0.000000      0.0
C    0.5    0.288675      0.0             ! 1/SQRT(12)
K_POINTS {crystal}
197
   0.33330  0.33330  0.00000    1.0
   0.32933  0.32933  0.00000    1.0
   0.32536  0.32536  0.00000    1.0
   0.32140  0.32140  0.00000    1.0
   0.31743  0.31743  0.00000    1.0
   0.31346  0.31346  0.00000    1.0
   0.30949  0.30949  0.00000    1.0
   0.30552  0.30552  0.00000    1.0
   0.30156  0.30156  0.00000    1.0
   0.29759  0.29759  0.00000    1.0
   0.29362  0.29362  0.00000    1.0
   0.28965  0.28965  0.00000    1.0
   0.28569  0.28569  0.00000    1.0
   0.28172  0.28172  0.00000    1.0
   0.27775  0.27775  0.00000    1.0
   0.27378  0.27378  0.00000    1.0
   0.26981  0.26981  0.00000    1.0
   0.26585  0.26585  0.00000    1.0
   0.26188  0.26188  0.00000    1.0
   0.25791  0.25791  0.00000    1.0
   0.25394  0.25394  0.00000    1.0
   0.24998  0.24997  0.00000    1.0
   0.24601  0.24601  0.00000    1.0
   0.24204  0.24204  0.00000    1.0
   0.23807  0.23807  0.00000    1.0
   0.23410  0.23410  0.00000    1.0
   0.23014  0.23014  0.00000    1.0
   0.22617  0.22617  0.00000    1.0
   0.22220  0.22220  0.00000    1.0
   0.21823  0.21823  0.00000    1.0
   0.21426  0.21426  0.00000    1.0
   0.21030  0.21030  0.00000    1.0
   0.20633  0.20633  0.00000    1.0
   0.20236  0.20236  0.00000    1.0
   0.19839  0.19839  0.00000    1.0
   0.19442  0.19442  0.00000    1.0
   0.19046  0.19046  0.00000    1.0
   0.18649  0.18649  0.00000    1.0
   0.18252  0.18252  0.00000    1.0
   0.17855  0.17855  0.00000    1.0
   0.17459  0.17459  0.00000    1.0
   0.17062  0.17062  0.00000    1.0
   0.16665  0.16665  0.00000    1.0
   0.16268  0.16268  0.00000    1.0
   0.15871  0.15871  0.00000    1.0
   0.15475  0.15475  0.00000    1.0
   0.15078  0.15078  0.00000    1.0
   0.14681  0.14681  0.00000    1.0
   0.14284  0.14284  0.00000    1.0
   0.13887  0.13887  0.00000    1.0
   0.13491  0.13491  0.00000    1.0
   0.13094  0.13094  0.00000    1.0
   0.12697  0.12697  0.00000    1.0
   0.12300  0.12300  0.00000    1.0
   0.11904  0.11904  0.00000    1.0
   0.11507  0.11507  0.00000    1.0
   0.11110  0.11110  0.00000    1.0
   0.10713  0.10713  0.00000    1.0
   0.10316  0.10316  0.00000    1.0
   0.09920  0.09920  0.00000    1.0
   0.09523  0.09523  0.00000    1.0
   0.09126  0.09126  0.00000    1.0
   0.08729  0.08729  0.00000    1.0
   0.08333  0.08332  0.00000    1.0
   0.07936  0.07936  0.00000    1.0
   0.07539  0.07539  0.00000    1.0
   0.07142  0.07142  0.00000    1.0
   0.06745  0.06745  0.00000    1.0
   0.06349  0.06349  0.00000    1.0
   0.05952  0.05952  0.00000    1.0
   0.05555  0.05555  0.00000    1.0
   0.05158  0.05158  0.00000    1.0
   0.04761  0.04761  0.00000    1.0
   0.04365  0.04365  0.00000    1.0
   0.03968  0.03968  0.00000    1.0
   0.03571  0.03571  0.00000    1.0
   0.03174  0.03174  0.00000    1.0
   0.02777  0.02777  0.00000    1.0
   0.02381  0.02381  0.00000    1.0
   0.01984  0.01984  0.00000    1.0
   0.01587  0.01587  0.00000    1.0
   0.01190  0.01190  0.00000    1.0
   0.00794  0.00794  0.00000    1.0
   0.00000  0.00000  0.00000    1.0
   0.00685  0.00000  0.00000    1.0
   0.01370  0.00000  0.00000    1.0
   0.02055  0.00000  0.00000    1.0
   0.02740  0.00000  0.00000    1.0
   0.03425  0.00000  0.00000    1.0
   0.04110  0.00000  0.00000    1.0
   0.04795  0.00000  0.00000    1.0
   0.05479  0.00000  0.00000    1.0
   0.06164  0.00000  0.00000    1.0
   0.06849  0.00000  0.00000    1.0
   0.07534  0.00000  0.00000    1.0
   0.08219  0.00000  0.00000    1.0
   0.08904  0.00000  0.00000    1.0
   0.09589  0.00000  0.00000    1.0
   0.10274  0.00000  0.00000    1.0
   0.10959  0.00000  0.00000    1.0
   0.11644  0.00000  0.00000    1.0
   0.12329  0.00000  0.00000    1.0
   0.13014  0.00000  0.00000    1.0
   0.13699  0.00000  0.00000    1.0
   0.14384  0.00000  0.00000    1.0
   0.15068  0.00000  0.00000    1.0
   0.15753  0.00000  0.00000    1.0
   0.16438  0.00000  0.00000    1.0
   0.17123  0.00000  0.00000    1.0
   0.17808  0.00000  0.00000    1.0
   0.18493  0.00000  0.00000    1.0
   0.19178  0.00000  0.00000    1.0
   0.19863  0.00000  0.00000    1.0
   0.20548  0.00000  0.00000    1.0
   0.21233  0.00000  0.00000    1.0
   0.21918  0.00000  0.00000    1.0
   0.22603  0.00000  0.00000    1.0
   0.23288  0.00000  0.00000    1.0
   0.23973  0.00000  0.00000    1.0
   0.24658  0.00000  0.00000    1.0
   0.25342  0.00000  0.00000    1.0
   0.26027  0.00000  0.00000    1.0
   0.26712  0.00000  0.00000    1.0
   0.27397  0.00000  0.00000    1.0
   0.28082  0.00000  0.00000    1.0
   0.28767  0.00000  0.00000    1.0
   0.29452  0.00000  0.00000    1.0
   0.30137  0.00000  0.00000    1.0
   0.30822  0.00000  0.00000    1.0
   0.31507  0.00000  0.00000    1.0
   0.32192  0.00000  0.00000    1.0
   0.32877  0.00000  0.00000    1.0
   0.33562  0.00000  0.00000    1.0
   0.34247  0.00000  0.00000    1.0
   0.34932  0.00000  0.00000    1.0
   0.35616  0.00000  0.00000    1.0
   0.36301  0.00000  0.00000    1.0
   0.36986  0.00000  0.00000    1.0
   0.37671  0.00000  0.00000    1.0
   0.38356  0.00000  0.00000    1.0
   0.39041  0.00000  0.00000    1.0
   0.39726  0.00000  0.00000    1.0
   0.40411  0.00000  0.00000    1.0
   0.41096  0.00000  0.00000    1.0
   0.41781  0.00000  0.00000    1.0
   0.42466  0.00000  0.00000    1.0
   0.43151  0.00000  0.00000    1.0
   0.43836  0.00000  0.00000    1.0
   0.44521  0.00000  0.00000    1.0
   0.45205  0.00000  0.00000    1.0
   0.45890  0.00000  0.00000    1.0
   0.46575  0.00000  0.00000    1.0
   0.47260  0.00000  0.00000    1.0
   0.47945  0.00000  0.00000    1.0
   0.48630  0.00000  0.00000    1.0
   0.50000  0.00000  0.00000    1.0
   0.49603  0.00794  0.00000    1.0
   0.49206  0.01587  0.00000    1.0
   0.48809  0.02381  0.00000    1.0
   0.48412  0.03174  0.00000    1.0
   0.48015  0.03968  0.00000    1.0
   0.47619  0.04761  0.00000    1.0
   0.47222  0.05555  0.00000    1.0
   0.46825  0.06349  0.00000    1.0
   0.46428  0.07142  0.00000    1.0
   0.46031  0.07936  0.00000    1.0
   0.45634  0.08729  0.00000    1.0
   0.45237  0.09523  0.00000    1.0
   0.44840  0.10316  0.00000    1.0
   0.44443  0.11110  0.00000    1.0
   0.44046  0.11904  0.00000    1.0
   0.43650  0.12697  0.00000    1.0
   0.43253  0.13491  0.00000    1.0
   0.42856  0.14284  0.00000    1.0
   0.42459  0.15078  0.00000    1.0
   0.42062  0.15871  0.00000    1.0
   0.41665  0.16665  0.00000    1.0
   0.41268  0.17459  0.00000    1.0
   0.40871  0.18252  0.00000    1.0
   0.40474  0.19046  0.00000    1.0
   0.40077  0.19839  0.00000    1.0
   0.39680  0.20633  0.00000    1.0
   0.39284  0.21426  0.00000    1.0
   0.38887  0.22220  0.00000    1.0
   0.38490  0.23014  0.00000    1.0
   0.38093  0.23807  0.00000    1.0
   0.37696  0.24601  0.00000    1.0
   0.37299  0.25394  0.00000    1.0
   0.36902  0.26188  0.00000    1.0
   0.36505  0.26981  0.00000    1.0
   0.36108  0.27775  0.00000    1.0
   0.35711  0.28569  0.00000    1.0
   0.35315  0.29362  0.00000    1.0
   0.34918  0.30156  0.00000    1.0
   0.34521  0.30949  0.00000    1.0
   0.34124  0.31743  0.00000    1.0
   0.33330  0.33330  0.00000    1.0

