# Benzene molecule
# Generation of the KSS file

# Number of datasets: 2-step calculation
ndtset 2

# Definition of the unit cell
acell 3*20.0                  # Lattice constants (in atomic units)

rprim 1.0 0.0 0.0             # Cubic primitive lattice
      0.0 1.0 0.0             # (to be scaled by acell)
      0.0 0.0 1.0

# Definition of the system
ntypat 2                      # Number of species
znucl  01 06                  # Z number of each species
natom  12                     # Number of atoms
typat  6*2  6*1               # Type of each atom (index in znucl)
xangst    -1.581   2.525   1.645
          -0.181   2.524   1.633
           0.518   1.311   1.622
          -0.182   0.099   1.625
          -1.582   0.100   1.637
          -2.282   1.313   1.648
          -3.362   1.313   1.658
          -2.121   3.460   1.653
           0.359   3.459   1.631
           1.598   1.311   1.612
           0.357  -0.836   1.616
          -2.123  -0.835   1.639

#kptopt      1
#ngkpt      1 1 1


kptopt 0
nkpt   1
kpt    0.0 0.0 0.0



# Definition of the plane-wave basis set
ecut  20                   # Kinetic energy cut-off, in Hartree

# IO
istwfk  1                     # wfc storage flag
accesswff  3                  # ETSF_IO

## parallelism
#wfoptalg   1
#nbdblock   4

# Step 1: determine the ground state
nstep1  1                    # Maximum number of SCF cycles
iscf1    3                    # Algorithm: Anderson mixing of the potential
diemac1  3.0
nband1  20                    # Number of bands
toldfe1  1.0d-5              # Tolerance on total energy
prtden1  1                    # Store electronic density in a file

# Step 2: obtain the Kohn-Sham band structure
getden2    1                  # Read electronic density from step 1
getwfk2   0
iscf2     -2                  # Non self-consistent calculation
tolwfr2    1.0d-16            # Tolerance on wavefunctions
nband2     40                 # Number of bands for the system
#nbandkss2  40                 # Number of bands to output to the KSS file
#kssform2   3                  # Format of the KSS file
symmorphi2 0                  # Disallow non-symmorphic operations (required)

