
 &INPUT
   prefix = 'benzene'
   postfix = '_WanT'
   work_dir = './'
!   output_fmt = 'txt'
   datatype = 'modulus'
   wann = '1-2,7-8,14-15'
 /
