
 &INPUT
   prefix = 'benzene_US'
   postfix = '_WanT'
   work_dir = './SCRATCH/'
   output_fmt = 'plt'
   datatype = 'modulus'
   collect_wf = .FALSE.
   wann = '1-2,14-15'
 /
