
&INPUTPP
  prefix='graphene'
  outdir='./SCRATCH/'
  pseudo_dir = '../pseudo/'
  psfile(1) = 'C.blyp-mt.UPF'
/

