&inputpp
  prefix='graphene'
  outdir='./'
  pseudo_dir = './'
  psfile(1) = 'C.blyp-mt.UPF'
/
