
&INPUT
   prefix = 'al5'
   postfix = '_WanT'
   work_dir = './SCRATCH/'
   nkpts_in  = 2
   nkpts_max = 100
/
G   0.0 0.0 0.0
Z   0.0 0.0 0.5
