Al wire, 15 LDA NCPP
a=3.0 ang
   &CONTROL
      calculation = 'nscf',
      restart_mode='from_scratch',
      prefix='al',
      nstep=50,
      tstress = .FALSE.,
      tprnfor = .TRUE.,
      pseudo_dir = './',
      etot_conv_thr=1.0e-4,
      forc_conv_thr=1.0e-3,
   /
   &SYSTEM
      ibrav=8, 
      celldm(1)=20.0,
      celldm(2)=1.0,
      celldm(3)=0.28346,
      nat=1, 
      ntyp=1,
      ecutwfc=15.0,
      occupations='smearing',
      smearing='gaussian',
      degauss=0.01,
      nbnd=20
   /
   &ELECTRONS
      electron_maxstep = 50,
      mixing_mode = 'plain',
      mixing_beta = 0.3,
      conv_thr =  1.0d-8,
   /
ATOMIC_SPECIES
  Al  26.98154  Al.pz-vbc.UPF
ATOMIC_POSITIONS {angstrom}
Al    0.000    0.000   0.000
K_POINTS {crystal}
    20
 0.000000000   0.000000000   0.000000000  1.000
 0.000000000   0.000000000   0.050000001  1.000
 0.000000000   0.000000000   0.100000001  1.000
 0.000000000   0.000000000   0.150000006  1.000
 0.000000000   0.000000000   0.200000003  1.000
 0.000000000   0.000000000   0.250000000  1.000
 0.000000000   0.000000000   0.300000012  1.000
 0.000000000   0.000000000   0.349999994  1.000
 0.000000000   0.000000000   0.400000006  1.000
 0.000000000   0.000000000   0.449999988  1.000
 0.000000000   0.000000000   0.500000000  1.000
 0.000000000   0.000000000   0.550000012  1.000
 0.000000000   0.000000000   0.600000024  1.000
 0.000000000   0.000000000   0.649999976  1.000
 0.000000000   0.000000000   0.699999988  1.000
 0.000000000   0.000000000   0.750000000  1.000
 0.000000000   0.000000000   0.800000012  1.000
 0.000000000   0.000000000   0.850000024  1.000
 0.000000000   0.000000000   0.899999976  1.000
 0.000000000   0.000000000   0.949999988  1.000
