Al wire, 15 LDA NCPP
a = 4.5 Bohr
   &CONTROL
      calculation = 'nscf',
      restart_mode='from_scratch',
      prefix='al1',
      pseudo_dir = './'
   /
   &SYSTEM
      ibrav=6, 
      celldm(1)=12.0,
      celldm(3)=0.375,
      nat=1, 
      ntyp=1,
      ecutwfc=15.0,
      occupations='smearing',
      smearing='methfessel-paxton',
      degauss=0.01,
      nbnd=20
   /
   &ELECTRONS
      mixing_beta = 0.3,
      conv_thr =  1.0d-8,
   /
ATOMIC_SPECIES
  Al  26.98154  Al.pz-vbc.UPF
ATOMIC_POSITIONS {angstrom}
Al    0.000    0.000   0.000
K_POINTS {crystal}
    20
 0.000000000   0.000000000   0.000000000  1.000
 0.000000000   0.000000000   0.050000001  1.000
 0.000000000   0.000000000   0.100000001  1.000
 0.000000000   0.000000000   0.150000006  1.000
 0.000000000   0.000000000   0.200000003  1.000
 0.000000000   0.000000000   0.250000000  1.000
 0.000000000   0.000000000   0.300000012  1.000
 0.000000000   0.000000000   0.349999994  1.000
 0.000000000   0.000000000   0.400000006  1.000
 0.000000000   0.000000000   0.449999988  1.000
 0.000000000   0.000000000   0.500000000  1.000
 0.000000000   0.000000000   0.550000012  1.000
 0.000000000   0.000000000   0.600000024  1.000
 0.000000000   0.000000000   0.649999976  1.000
 0.000000000   0.000000000   0.699999988  1.000
 0.000000000   0.000000000   0.750000000  1.000
 0.000000000   0.000000000   0.800000012  1.000
 0.000000000   0.000000000   0.850000024  1.000
 0.000000000   0.000000000   0.899999976  1.000
 0.000000000   0.000000000   0.949999988  1.000
