
&INPUTPP
  prefix='al'
  nk(1)=1,
  nk(2)=1,
  nk(3)=20,
  s0(1)=0.0,
  s0(2)=0.0,
  s0(3)=0.0,
/
