&inputpp
  prefix='alh'
  outdir='./'
  pseudo_dir = './'
  psfile(1) = 'Al.pz-vbc.UPF'
  psfile(2) = 'H.pz-vbc.UPF'
  single_file = .FALSE.
  ascii = .FALSE.
/
