
&CONTROL
   prefix = 'al1'
   postfix = '_WanT'
   work_dir = './SCRATCH/'
/

&SUBSPACE
   dimwann = 4     
   win_max = 10.0  
   froz_max = 1.5
   maxiter_dis = 1000
/

&LOCALIZATION
   maxiter0_wan = 100, 
   maxiter1_wan = 5000, 
   ncg = 5      
/

WANNIER_CENTERS {crystal}
1gauss    0.000000    0.000000    0.000000  0  0   0.6
1gauss    0.000000    0.000000    0.000000  1  0   0.6
1gauss    0.000000    0.000000    0.000000  1 -1   0.6
1gauss    0.000000    0.000000    0.000000  1 +1   0.6

