
&CONTROL
   prefix = 'al'
   postfix = '_WanT'
   work_dir = './'
   unitary_thr = 5.0e-7
/

&SUBSPACE
   dimwann = 4     
   win_min = -20.0
   win_max = 10.0  
   maxiter_dis = 500
/

&LOCALIZATION
   maxiter0_wan = 200, 
   alpha0_wan = 0.5
   maxiter1_wan = 1500, 
   alpha1_wan = 0.5
   ncg = 5      
/

WANNIER_CENTERS {crystal}
1gauss    0.000000    0.000000    0.000000  0  0   0.6
1gauss    0.000000    0.000000    0.000000  1  0   0.6
1gauss    0.000000    0.000000    0.000000  1 -1   0.6
1gauss    0.000000    0.000000    0.000000  1 +1   0.6

