
!used for first abinit run - comment out for stand-alone wannier90 runs
postproc_setup = .true.
!num_iter = 1000

!comment out for first run, uncomment for stand-alone wannier90 runs
! to improve wannier convergence
!restart = wannierise

!comment out for first run, uncomment for stand-alone wannier90 runs
! for band plotting
!restart = plot
!bands_plot = .true.

!to print out the hamiltonian
!restart=plot
!hr_plot =true


!comment out for first run, uncomment for stand-alone wannier90 runs
! to plot wannier functions
! restart = plot
! wannier_plot = .true.
! wannier_plot_supercell = 3
! wannier_plot_list= 6,12,18,24,30,36,42,48

!this is only used for band plotting, but can stay in for all runs
begin kpoint_path
G 0.0 0.0 0.0  A 0.0 0.0 0.5
end kpoint_path

iprint = 2
! disentanglement
 num_wann = 6
 num_bands = 6  !avoids breaking up degenerate groups on k-point mesh
! exclude_bands = 61-80
! dis_win_max = -3 !minimum that will include 50 bands at all k mesh points
! dis_froz_max = -3.2 !below minimum of band 51


! Transport variables
!restart=transport
!transport = true
!transport_mode = bulk
!tran_win_min   = -16
!tran_win_max   = 16
!tran_energy_step = 0.01
!one_dim_axis   = z
!dist_cutoff_mode = one_dim
!tran_write_ht=.true.

guiding_centres=true

begin projections
!site:ang_mtm:zaxis:xaxis:radial:zona:box-size

!d orbitals on Pt1
!WFs 1-5
Pt:l=2:zona=0.5:r=4
!bonding orbital Pt1-Pt2
!WF 6
c=5.291772,5.291772,-0.00:s:zona=0.5:r=4

end projections

mp_grid = 1 1 4

begin atoms_cart
Pt      5.2917721   5.2917721   1.1906487
end atoms_cart

!everything below can be copied from the wannier90.nnkp file output
! after the initial abinit wannier run

! this is in Angstroms

begin unit_cell_cart
  10.5835442   0.0000000   0.0000000
   0.0000000  10.5835442   0.0000000
   0.0000000   0.0000000   2.3950000
end unit_cell_cart

begin kpoints
    0.00000000    0.00000000    0.00000000
    0.00000000    0.00000000    0.25000000
    0.00000000    0.00000000    0.50000000
    0.00000000    0.00000000   -0.25000000
end kpoints
