
 &INPUT
   prefix = 'copper'
   postfix = '_WanT'
   fileout = 'dos_Cu.dat'
   nk(1) = 15
   nk(2) = 15
   nk(3) = 15
   delta = 0.05
   smearing_type = 'gaussian'
 /
