copper FCC bulk PBE USPP
3d in valence
 &CONTROL
    calculation = 'nscf'
    restart_mode='from_scratch',
    prefix='copper_US',
    tprnfor = .FALSE.
    pseudo_dir = '../pseudo/'
    outdir = './SCRATCH'
    wf_collect = .TRUE.
 /
 &SYSTEM
      ibrav=2,
      celldm(1)=6.9678
      nat=1,
      ntyp=1,
      ecutwfc=25,
      ecutrho=200,
      occupations='smearing',
      smearing='gaussian',
      degauss=0.006,
      nbnd = 20
 /
 &ELECTRONS
    electron_maxstep = 50,
    mixing_mode = 'plain'
    mixing_beta = 0.3
    conv_thr =  1.0d-8
 /
ATOMIC_SPECIES
 Cu  63.546  Cu.pbe-d-rrkjus.UPF
ATOMIC_POSITIONS (crystal)
Cu   0.00000000      0.00000000      0.00000000
K_POINTS (crystal)
   216
    0.000000000    0.000000000    0.000000000      0.009259
    0.166666672    0.000000000    0.000000000      0.009259
    0.333333343    0.000000000    0.000000000      0.009259
    0.500000000    0.000000000    0.000000000      0.009259
    0.666666687    0.000000000    0.000000000      0.009259
    0.833333313    0.000000000    0.000000000      0.009259
    0.000000000    0.166666672    0.000000000      0.009259
    0.166666672    0.166666672    0.000000000      0.009259
    0.333333343    0.166666672    0.000000000      0.009259
    0.500000000    0.166666672    0.000000000      0.009259
    0.666666687    0.166666672    0.000000000      0.009259
    0.833333313    0.166666672    0.000000000      0.009259
    0.000000000    0.333333343    0.000000000      0.009259
    0.166666672    0.333333343    0.000000000      0.009259
    0.333333343    0.333333343    0.000000000      0.009259
    0.500000000    0.333333343    0.000000000      0.009259
    0.666666687    0.333333343    0.000000000      0.009259
    0.833333313    0.333333343    0.000000000      0.009259
    0.000000000    0.500000000    0.000000000      0.009259
    0.166666672    0.500000000    0.000000000      0.009259
    0.333333343    0.500000000    0.000000000      0.009259
    0.500000000    0.500000000    0.000000000      0.009259
    0.666666687    0.500000000    0.000000000      0.009259
    0.833333313    0.500000000    0.000000000      0.009259
    0.000000000    0.666666687    0.000000000      0.009259
    0.166666672    0.666666687    0.000000000      0.009259
    0.333333343    0.666666687    0.000000000      0.009259
    0.500000000    0.666666687    0.000000000      0.009259
    0.666666687    0.666666687    0.000000000      0.009259
    0.833333313    0.666666687    0.000000000      0.009259
    0.000000000    0.833333313    0.000000000      0.009259
    0.166666672    0.833333313    0.000000000      0.009259
    0.333333343    0.833333313    0.000000000      0.009259
    0.500000000    0.833333313    0.000000000      0.009259
    0.666666687    0.833333313    0.000000000      0.009259
    0.833333313    0.833333313    0.000000000      0.009259
    0.000000000    0.000000000    0.166666672      0.009259
    0.166666672    0.000000000    0.166666672      0.009259
    0.333333343    0.000000000    0.166666672      0.009259
    0.500000000    0.000000000    0.166666672      0.009259
    0.666666687    0.000000000    0.166666672      0.009259
    0.833333313    0.000000000    0.166666672      0.009259
    0.000000000    0.166666672    0.166666672      0.009259
    0.166666672    0.166666672    0.166666672      0.009259
    0.333333343    0.166666672    0.166666672      0.009259
    0.500000000    0.166666672    0.166666672      0.009259
    0.666666687    0.166666672    0.166666672      0.009259
    0.833333313    0.166666672    0.166666672      0.009259
    0.000000000    0.333333343    0.166666672      0.009259
    0.166666672    0.333333343    0.166666672      0.009259
    0.333333343    0.333333343    0.166666672      0.009259
    0.500000000    0.333333343    0.166666672      0.009259
    0.666666687    0.333333343    0.166666672      0.009259
    0.833333313    0.333333343    0.166666672      0.009259
    0.000000000    0.500000000    0.166666672      0.009259
    0.166666672    0.500000000    0.166666672      0.009259
    0.333333343    0.500000000    0.166666672      0.009259
    0.500000000    0.500000000    0.166666672      0.009259
    0.666666687    0.500000000    0.166666672      0.009259
    0.833333313    0.500000000    0.166666672      0.009259
    0.000000000    0.666666687    0.166666672      0.009259
    0.166666672    0.666666687    0.166666672      0.009259
    0.333333343    0.666666687    0.166666672      0.009259
    0.500000000    0.666666687    0.166666672      0.009259
    0.666666687    0.666666687    0.166666672      0.009259
    0.833333313    0.666666687    0.166666672      0.009259
    0.000000000    0.833333313    0.166666672      0.009259
    0.166666672    0.833333313    0.166666672      0.009259
    0.333333343    0.833333313    0.166666672      0.009259
    0.500000000    0.833333313    0.166666672      0.009259
    0.666666687    0.833333313    0.166666672      0.009259
    0.833333313    0.833333313    0.166666672      0.009259
    0.000000000    0.000000000    0.333333343      0.009259
    0.166666672    0.000000000    0.333333343      0.009259
    0.333333343    0.000000000    0.333333343      0.009259
    0.500000000    0.000000000    0.333333343      0.009259
    0.666666687    0.000000000    0.333333343      0.009259
    0.833333313    0.000000000    0.333333343      0.009259
    0.000000000    0.166666672    0.333333343      0.009259
    0.166666672    0.166666672    0.333333343      0.009259
    0.333333343    0.166666672    0.333333343      0.009259
    0.500000000    0.166666672    0.333333343      0.009259
    0.666666687    0.166666672    0.333333343      0.009259
    0.833333313    0.166666672    0.333333343      0.009259
    0.000000000    0.333333343    0.333333343      0.009259
    0.166666672    0.333333343    0.333333343      0.009259
    0.333333343    0.333333343    0.333333343      0.009259
    0.500000000    0.333333343    0.333333343      0.009259
    0.666666687    0.333333343    0.333333343      0.009259
    0.833333313    0.333333343    0.333333343      0.009259
    0.000000000    0.500000000    0.333333343      0.009259
    0.166666672    0.500000000    0.333333343      0.009259
    0.333333343    0.500000000    0.333333343      0.009259
    0.500000000    0.500000000    0.333333343      0.009259
    0.666666687    0.500000000    0.333333343      0.009259
    0.833333313    0.500000000    0.333333343      0.009259
    0.000000000    0.666666687    0.333333343      0.009259
    0.166666672    0.666666687    0.333333343      0.009259
    0.333333343    0.666666687    0.333333343      0.009259
    0.500000000    0.666666687    0.333333343      0.009259
    0.666666687    0.666666687    0.333333343      0.009259
    0.833333313    0.666666687    0.333333343      0.009259
    0.000000000    0.833333313    0.333333343      0.009259
    0.166666672    0.833333313    0.333333343      0.009259
    0.333333343    0.833333313    0.333333343      0.009259
    0.500000000    0.833333313    0.333333343      0.009259
    0.666666687    0.833333313    0.333333343      0.009259
    0.833333313    0.833333313    0.333333343      0.009259
    0.000000000    0.000000000    0.500000000      0.009259
    0.166666672    0.000000000    0.500000000      0.009259
    0.333333343    0.000000000    0.500000000      0.009259
    0.500000000    0.000000000    0.500000000      0.009259
    0.666666687    0.000000000    0.500000000      0.009259
    0.833333313    0.000000000    0.500000000      0.009259
    0.000000000    0.166666672    0.500000000      0.009259
    0.166666672    0.166666672    0.500000000      0.009259
    0.333333343    0.166666672    0.500000000      0.009259
    0.500000000    0.166666672    0.500000000      0.009259
    0.666666687    0.166666672    0.500000000      0.009259
    0.833333313    0.166666672    0.500000000      0.009259
    0.000000000    0.333333343    0.500000000      0.009259
    0.166666672    0.333333343    0.500000000      0.009259
    0.333333343    0.333333343    0.500000000      0.009259
    0.500000000    0.333333343    0.500000000      0.009259
    0.666666687    0.333333343    0.500000000      0.009259
    0.833333313    0.333333343    0.500000000      0.009259
    0.000000000    0.500000000    0.500000000      0.009259
    0.166666672    0.500000000    0.500000000      0.009259
    0.333333343    0.500000000    0.500000000      0.009259
    0.500000000    0.500000000    0.500000000      0.009259
    0.666666687    0.500000000    0.500000000      0.009259
    0.833333313    0.500000000    0.500000000      0.009259
    0.000000000    0.666666687    0.500000000      0.009259
    0.166666672    0.666666687    0.500000000      0.009259
    0.333333343    0.666666687    0.500000000      0.009259
    0.500000000    0.666666687    0.500000000      0.009259
    0.666666687    0.666666687    0.500000000      0.009259
    0.833333313    0.666666687    0.500000000      0.009259
    0.000000000    0.833333313    0.500000000      0.009259
    0.166666672    0.833333313    0.500000000      0.009259
    0.333333343    0.833333313    0.500000000      0.009259
    0.500000000    0.833333313    0.500000000      0.009259
    0.666666687    0.833333313    0.500000000      0.009259
    0.833333313    0.833333313    0.500000000      0.009259
    0.000000000    0.000000000    0.666666687      0.009259
    0.166666672    0.000000000    0.666666687      0.009259
    0.333333343    0.000000000    0.666666687      0.009259
    0.500000000    0.000000000    0.666666687      0.009259
    0.666666687    0.000000000    0.666666687      0.009259
    0.833333313    0.000000000    0.666666687      0.009259
    0.000000000    0.166666672    0.666666687      0.009259
    0.166666672    0.166666672    0.666666687      0.009259
    0.333333343    0.166666672    0.666666687      0.009259
    0.500000000    0.166666672    0.666666687      0.009259
    0.666666687    0.166666672    0.666666687      0.009259
    0.833333313    0.166666672    0.666666687      0.009259
    0.000000000    0.333333343    0.666666687      0.009259
    0.166666672    0.333333343    0.666666687      0.009259
    0.333333343    0.333333343    0.666666687      0.009259
    0.500000000    0.333333343    0.666666687      0.009259
    0.666666687    0.333333343    0.666666687      0.009259
    0.833333313    0.333333343    0.666666687      0.009259
    0.000000000    0.500000000    0.666666687      0.009259
    0.166666672    0.500000000    0.666666687      0.009259
    0.333333343    0.500000000    0.666666687      0.009259
    0.500000000    0.500000000    0.666666687      0.009259
    0.666666687    0.500000000    0.666666687      0.009259
    0.833333313    0.500000000    0.666666687      0.009259
    0.000000000    0.666666687    0.666666687      0.009259
    0.166666672    0.666666687    0.666666687      0.009259
    0.333333343    0.666666687    0.666666687      0.009259
    0.500000000    0.666666687    0.666666687      0.009259
    0.666666687    0.666666687    0.666666687      0.009259
    0.833333313    0.666666687    0.666666687      0.009259
    0.000000000    0.833333313    0.666666687      0.009259
    0.166666672    0.833333313    0.666666687      0.009259
    0.333333343    0.833333313    0.666666687      0.009259
    0.500000000    0.833333313    0.666666687      0.009259
    0.666666687    0.833333313    0.666666687      0.009259
    0.833333313    0.833333313    0.666666687      0.009259
    0.000000000    0.000000000    0.833333313      0.009259
    0.166666672    0.000000000    0.833333313      0.009259
    0.333333343    0.000000000    0.833333313      0.009259
    0.500000000    0.000000000    0.833333313      0.009259
    0.666666687    0.000000000    0.833333313      0.009259
    0.833333313    0.000000000    0.833333313      0.009259
    0.000000000    0.166666672    0.833333313      0.009259
    0.166666672    0.166666672    0.833333313      0.009259
    0.333333343    0.166666672    0.833333313      0.009259
    0.500000000    0.166666672    0.833333313      0.009259
    0.666666687    0.166666672    0.833333313      0.009259
    0.833333313    0.166666672    0.833333313      0.009259
    0.000000000    0.333333343    0.833333313      0.009259
    0.166666672    0.333333343    0.833333313      0.009259
    0.333333343    0.333333343    0.833333313      0.009259
    0.500000000    0.333333343    0.833333313      0.009259
    0.666666687    0.333333343    0.833333313      0.009259
    0.833333313    0.333333343    0.833333313      0.009259
    0.000000000    0.500000000    0.833333313      0.009259
    0.166666672    0.500000000    0.833333313      0.009259
    0.333333343    0.500000000    0.833333313      0.009259
    0.500000000    0.500000000    0.833333313      0.009259
    0.666666687    0.500000000    0.833333313      0.009259
    0.833333313    0.500000000    0.833333313      0.009259
    0.000000000    0.666666687    0.833333313      0.009259
    0.166666672    0.666666687    0.833333313      0.009259
    0.333333343    0.666666687    0.833333313      0.009259
    0.500000000    0.666666687    0.833333313      0.009259
    0.666666687    0.666666687    0.833333313      0.009259
    0.833333313    0.666666687    0.833333313      0.009259
    0.000000000    0.833333313    0.833333313      0.009259
    0.166666672    0.833333313    0.833333313      0.009259
    0.333333343    0.833333313    0.833333313      0.009259
    0.500000000    0.833333313    0.833333313      0.009259
    0.666666687    0.833333313    0.833333313      0.009259
    0.833333313    0.833333313    0.833333313      0.009259
