copper FCC bulk pw91
3d in valence
 &CONTROL
    calculation = 'nscf'
    restart_mode='from_scratch',
    prefix='copper',
    tprnfor = .FALSE.
    pseudo_dir = './'
 /
 &SYSTEM
      ibrav=2,
      celldm(1)=6.9678
      nat=1,
      ntyp=1,
      ecutwfc=130,
      ecutrho=520,
      occupations='smearing',
      smearing='gaussian',
      degauss=0.006,
      nbnd = 20
 /
 &ELECTRONS
    electron_maxstep = 50,
    mixing_mode = 'plain'
    mixing_beta = 0.3
    conv_thr =  1.0d-8
 /
ATOMIC_SPECIES
 Cu  63.546  Cu.pw91-cpi.UPF
ATOMIC_POSITIONS (crystal)
Cu   0.00000000      0.00000000      0.00000000
K_POINTS (crystal)
1000
    0.000000000    0.000000000    0.000000000      0.002000
    0.100000001    0.000000000    0.000000000      0.002000
    0.200000003    0.000000000    0.000000000      0.002000
    0.300000012    0.000000000    0.000000000      0.002000
    0.400000006    0.000000000    0.000000000      0.002000
    0.500000000    0.000000000    0.000000000      0.002000
    0.600000024    0.000000000    0.000000000      0.002000
    0.699999988    0.000000000    0.000000000      0.002000
    0.800000012    0.000000000    0.000000000      0.002000
    0.899999976    0.000000000    0.000000000      0.002000
    0.000000000    0.100000001    0.000000000      0.002000
    0.100000001    0.100000001    0.000000000      0.002000
    0.200000003    0.100000001    0.000000000      0.002000
    0.300000012    0.100000001    0.000000000      0.002000
    0.400000006    0.100000001    0.000000000      0.002000
    0.500000000    0.100000001    0.000000000      0.002000
    0.600000024    0.100000001    0.000000000      0.002000
    0.699999988    0.100000001    0.000000000      0.002000
    0.800000012    0.100000001    0.000000000      0.002000
    0.899999976    0.100000001    0.000000000      0.002000
    0.000000000    0.200000003    0.000000000      0.002000
    0.100000001    0.200000003    0.000000000      0.002000
    0.200000003    0.200000003    0.000000000      0.002000
    0.300000012    0.200000003    0.000000000      0.002000
    0.400000006    0.200000003    0.000000000      0.002000
    0.500000000    0.200000003    0.000000000      0.002000
    0.600000024    0.200000003    0.000000000      0.002000
    0.699999988    0.200000003    0.000000000      0.002000
    0.800000012    0.200000003    0.000000000      0.002000
    0.899999976    0.200000003    0.000000000      0.002000
    0.000000000    0.300000012    0.000000000      0.002000
    0.100000001    0.300000012    0.000000000      0.002000
    0.200000003    0.300000012    0.000000000      0.002000
    0.300000012    0.300000012    0.000000000      0.002000
    0.400000006    0.300000012    0.000000000      0.002000
    0.500000000    0.300000012    0.000000000      0.002000
    0.600000024    0.300000012    0.000000000      0.002000
    0.699999988    0.300000012    0.000000000      0.002000
    0.800000012    0.300000012    0.000000000      0.002000
    0.899999976    0.300000012    0.000000000      0.002000
    0.000000000    0.400000006    0.000000000      0.002000
    0.100000001    0.400000006    0.000000000      0.002000
    0.200000003    0.400000006    0.000000000      0.002000
    0.300000012    0.400000006    0.000000000      0.002000
    0.400000006    0.400000006    0.000000000      0.002000
    0.500000000    0.400000006    0.000000000      0.002000
    0.600000024    0.400000006    0.000000000      0.002000
    0.699999988    0.400000006    0.000000000      0.002000
    0.800000012    0.400000006    0.000000000      0.002000
    0.899999976    0.400000006    0.000000000      0.002000
    0.000000000    0.500000000    0.000000000      0.002000
    0.100000001    0.500000000    0.000000000      0.002000
    0.200000003    0.500000000    0.000000000      0.002000
    0.300000012    0.500000000    0.000000000      0.002000
    0.400000006    0.500000000    0.000000000      0.002000
    0.500000000    0.500000000    0.000000000      0.002000
    0.600000024    0.500000000    0.000000000      0.002000
    0.699999988    0.500000000    0.000000000      0.002000
    0.800000012    0.500000000    0.000000000      0.002000
    0.899999976    0.500000000    0.000000000      0.002000
    0.000000000    0.600000024    0.000000000      0.002000
    0.100000001    0.600000024    0.000000000      0.002000
    0.200000003    0.600000024    0.000000000      0.002000
    0.300000012    0.600000024    0.000000000      0.002000
    0.400000006    0.600000024    0.000000000      0.002000
    0.500000000    0.600000024    0.000000000      0.002000
    0.600000024    0.600000024    0.000000000      0.002000
    0.699999988    0.600000024    0.000000000      0.002000
    0.800000012    0.600000024    0.000000000      0.002000
    0.899999976    0.600000024    0.000000000      0.002000
    0.000000000    0.699999988    0.000000000      0.002000
    0.100000001    0.699999988    0.000000000      0.002000
    0.200000003    0.699999988    0.000000000      0.002000
    0.300000012    0.699999988    0.000000000      0.002000
    0.400000006    0.699999988    0.000000000      0.002000
    0.500000000    0.699999988    0.000000000      0.002000
    0.600000024    0.699999988    0.000000000      0.002000
    0.699999988    0.699999988    0.000000000      0.002000
    0.800000012    0.699999988    0.000000000      0.002000
    0.899999976    0.699999988    0.000000000      0.002000
    0.000000000    0.800000012    0.000000000      0.002000
    0.100000001    0.800000012    0.000000000      0.002000
    0.200000003    0.800000012    0.000000000      0.002000
    0.300000012    0.800000012    0.000000000      0.002000
    0.400000006    0.800000012    0.000000000      0.002000
    0.500000000    0.800000012    0.000000000      0.002000
    0.600000024    0.800000012    0.000000000      0.002000
    0.699999988    0.800000012    0.000000000      0.002000
    0.800000012    0.800000012    0.000000000      0.002000
    0.899999976    0.800000012    0.000000000      0.002000
    0.000000000    0.899999976    0.000000000      0.002000
    0.100000001    0.899999976    0.000000000      0.002000
    0.200000003    0.899999976    0.000000000      0.002000
    0.300000012    0.899999976    0.000000000      0.002000
    0.400000006    0.899999976    0.000000000      0.002000
    0.500000000    0.899999976    0.000000000      0.002000
    0.600000024    0.899999976    0.000000000      0.002000
    0.699999988    0.899999976    0.000000000      0.002000
    0.800000012    0.899999976    0.000000000      0.002000
    0.899999976    0.899999976    0.000000000      0.002000
    0.000000000    0.000000000    0.100000001      0.002000
    0.100000001    0.000000000    0.100000001      0.002000
    0.200000003    0.000000000    0.100000001      0.002000
    0.300000012    0.000000000    0.100000001      0.002000
    0.400000006    0.000000000    0.100000001      0.002000
    0.500000000    0.000000000    0.100000001      0.002000
    0.600000024    0.000000000    0.100000001      0.002000
    0.699999988    0.000000000    0.100000001      0.002000
    0.800000012    0.000000000    0.100000001      0.002000
    0.899999976    0.000000000    0.100000001      0.002000
    0.000000000    0.100000001    0.100000001      0.002000
    0.100000001    0.100000001    0.100000001      0.002000
    0.200000003    0.100000001    0.100000001      0.002000
    0.300000012    0.100000001    0.100000001      0.002000
    0.400000006    0.100000001    0.100000001      0.002000
    0.500000000    0.100000001    0.100000001      0.002000
    0.600000024    0.100000001    0.100000001      0.002000
    0.699999988    0.100000001    0.100000001      0.002000
    0.800000012    0.100000001    0.100000001      0.002000
    0.899999976    0.100000001    0.100000001      0.002000
    0.000000000    0.200000003    0.100000001      0.002000
    0.100000001    0.200000003    0.100000001      0.002000
    0.200000003    0.200000003    0.100000001      0.002000
    0.300000012    0.200000003    0.100000001      0.002000
    0.400000006    0.200000003    0.100000001      0.002000
    0.500000000    0.200000003    0.100000001      0.002000
    0.600000024    0.200000003    0.100000001      0.002000
    0.699999988    0.200000003    0.100000001      0.002000
    0.800000012    0.200000003    0.100000001      0.002000
    0.899999976    0.200000003    0.100000001      0.002000
    0.000000000    0.300000012    0.100000001      0.002000
    0.100000001    0.300000012    0.100000001      0.002000
    0.200000003    0.300000012    0.100000001      0.002000
    0.300000012    0.300000012    0.100000001      0.002000
    0.400000006    0.300000012    0.100000001      0.002000
    0.500000000    0.300000012    0.100000001      0.002000
    0.600000024    0.300000012    0.100000001      0.002000
    0.699999988    0.300000012    0.100000001      0.002000
    0.800000012    0.300000012    0.100000001      0.002000
    0.899999976    0.300000012    0.100000001      0.002000
    0.000000000    0.400000006    0.100000001      0.002000
    0.100000001    0.400000006    0.100000001      0.002000
    0.200000003    0.400000006    0.100000001      0.002000
    0.300000012    0.400000006    0.100000001      0.002000
    0.400000006    0.400000006    0.100000001      0.002000
    0.500000000    0.400000006    0.100000001      0.002000
    0.600000024    0.400000006    0.100000001      0.002000
    0.699999988    0.400000006    0.100000001      0.002000
    0.800000012    0.400000006    0.100000001      0.002000
    0.899999976    0.400000006    0.100000001      0.002000
    0.000000000    0.500000000    0.100000001      0.002000
    0.100000001    0.500000000    0.100000001      0.002000
    0.200000003    0.500000000    0.100000001      0.002000
    0.300000012    0.500000000    0.100000001      0.002000
    0.400000006    0.500000000    0.100000001      0.002000
    0.500000000    0.500000000    0.100000001      0.002000
    0.600000024    0.500000000    0.100000001      0.002000
    0.699999988    0.500000000    0.100000001      0.002000
    0.800000012    0.500000000    0.100000001      0.002000
    0.899999976    0.500000000    0.100000001      0.002000
    0.000000000    0.600000024    0.100000001      0.002000
    0.100000001    0.600000024    0.100000001      0.002000
    0.200000003    0.600000024    0.100000001      0.002000
    0.300000012    0.600000024    0.100000001      0.002000
    0.400000006    0.600000024    0.100000001      0.002000
    0.500000000    0.600000024    0.100000001      0.002000
    0.600000024    0.600000024    0.100000001      0.002000
    0.699999988    0.600000024    0.100000001      0.002000
    0.800000012    0.600000024    0.100000001      0.002000
    0.899999976    0.600000024    0.100000001      0.002000
    0.000000000    0.699999988    0.100000001      0.002000
    0.100000001    0.699999988    0.100000001      0.002000
    0.200000003    0.699999988    0.100000001      0.002000
    0.300000012    0.699999988    0.100000001      0.002000
    0.400000006    0.699999988    0.100000001      0.002000
    0.500000000    0.699999988    0.100000001      0.002000
    0.600000024    0.699999988    0.100000001      0.002000
    0.699999988    0.699999988    0.100000001      0.002000
    0.800000012    0.699999988    0.100000001      0.002000
    0.899999976    0.699999988    0.100000001      0.002000
    0.000000000    0.800000012    0.100000001      0.002000
    0.100000001    0.800000012    0.100000001      0.002000
    0.200000003    0.800000012    0.100000001      0.002000
    0.300000012    0.800000012    0.100000001      0.002000
    0.400000006    0.800000012    0.100000001      0.002000
    0.500000000    0.800000012    0.100000001      0.002000
    0.600000024    0.800000012    0.100000001      0.002000
    0.699999988    0.800000012    0.100000001      0.002000
    0.800000012    0.800000012    0.100000001      0.002000
    0.899999976    0.800000012    0.100000001      0.002000
    0.000000000    0.899999976    0.100000001      0.002000
    0.100000001    0.899999976    0.100000001      0.002000
    0.200000003    0.899999976    0.100000001      0.002000
    0.300000012    0.899999976    0.100000001      0.002000
    0.400000006    0.899999976    0.100000001      0.002000
    0.500000000    0.899999976    0.100000001      0.002000
    0.600000024    0.899999976    0.100000001      0.002000
    0.699999988    0.899999976    0.100000001      0.002000
    0.800000012    0.899999976    0.100000001      0.002000
    0.899999976    0.899999976    0.100000001      0.002000
    0.000000000    0.000000000    0.200000003      0.002000
    0.100000001    0.000000000    0.200000003      0.002000
    0.200000003    0.000000000    0.200000003      0.002000
    0.300000012    0.000000000    0.200000003      0.002000
    0.400000006    0.000000000    0.200000003      0.002000
    0.500000000    0.000000000    0.200000003      0.002000
    0.600000024    0.000000000    0.200000003      0.002000
    0.699999988    0.000000000    0.200000003      0.002000
    0.800000012    0.000000000    0.200000003      0.002000
    0.899999976    0.000000000    0.200000003      0.002000
    0.000000000    0.100000001    0.200000003      0.002000
    0.100000001    0.100000001    0.200000003      0.002000
    0.200000003    0.100000001    0.200000003      0.002000
    0.300000012    0.100000001    0.200000003      0.002000
    0.400000006    0.100000001    0.200000003      0.002000
    0.500000000    0.100000001    0.200000003      0.002000
    0.600000024    0.100000001    0.200000003      0.002000
    0.699999988    0.100000001    0.200000003      0.002000
    0.800000012    0.100000001    0.200000003      0.002000
    0.899999976    0.100000001    0.200000003      0.002000
    0.000000000    0.200000003    0.200000003      0.002000
    0.100000001    0.200000003    0.200000003      0.002000
    0.200000003    0.200000003    0.200000003      0.002000
    0.300000012    0.200000003    0.200000003      0.002000
    0.400000006    0.200000003    0.200000003      0.002000
    0.500000000    0.200000003    0.200000003      0.002000
    0.600000024    0.200000003    0.200000003      0.002000
    0.699999988    0.200000003    0.200000003      0.002000
    0.800000012    0.200000003    0.200000003      0.002000
    0.899999976    0.200000003    0.200000003      0.002000
    0.000000000    0.300000012    0.200000003      0.002000
    0.100000001    0.300000012    0.200000003      0.002000
    0.200000003    0.300000012    0.200000003      0.002000
    0.300000012    0.300000012    0.200000003      0.002000
    0.400000006    0.300000012    0.200000003      0.002000
    0.500000000    0.300000012    0.200000003      0.002000
    0.600000024    0.300000012    0.200000003      0.002000
    0.699999988    0.300000012    0.200000003      0.002000
    0.800000012    0.300000012    0.200000003      0.002000
    0.899999976    0.300000012    0.200000003      0.002000
    0.000000000    0.400000006    0.200000003      0.002000
    0.100000001    0.400000006    0.200000003      0.002000
    0.200000003    0.400000006    0.200000003      0.002000
    0.300000012    0.400000006    0.200000003      0.002000
    0.400000006    0.400000006    0.200000003      0.002000
    0.500000000    0.400000006    0.200000003      0.002000
    0.600000024    0.400000006    0.200000003      0.002000
    0.699999988    0.400000006    0.200000003      0.002000
    0.800000012    0.400000006    0.200000003      0.002000
    0.899999976    0.400000006    0.200000003      0.002000
    0.000000000    0.500000000    0.200000003      0.002000
    0.100000001    0.500000000    0.200000003      0.002000
    0.200000003    0.500000000    0.200000003      0.002000
    0.300000012    0.500000000    0.200000003      0.002000
    0.400000006    0.500000000    0.200000003      0.002000
    0.500000000    0.500000000    0.200000003      0.002000
    0.600000024    0.500000000    0.200000003      0.002000
    0.699999988    0.500000000    0.200000003      0.002000
    0.800000012    0.500000000    0.200000003      0.002000
    0.899999976    0.500000000    0.200000003      0.002000
    0.000000000    0.600000024    0.200000003      0.002000
    0.100000001    0.600000024    0.200000003      0.002000
    0.200000003    0.600000024    0.200000003      0.002000
    0.300000012    0.600000024    0.200000003      0.002000
    0.400000006    0.600000024    0.200000003      0.002000
    0.500000000    0.600000024    0.200000003      0.002000
    0.600000024    0.600000024    0.200000003      0.002000
    0.699999988    0.600000024    0.200000003      0.002000
    0.800000012    0.600000024    0.200000003      0.002000
    0.899999976    0.600000024    0.200000003      0.002000
    0.000000000    0.699999988    0.200000003      0.002000
    0.100000001    0.699999988    0.200000003      0.002000
    0.200000003    0.699999988    0.200000003      0.002000
    0.300000012    0.699999988    0.200000003      0.002000
    0.400000006    0.699999988    0.200000003      0.002000
    0.500000000    0.699999988    0.200000003      0.002000
    0.600000024    0.699999988    0.200000003      0.002000
    0.699999988    0.699999988    0.200000003      0.002000
    0.800000012    0.699999988    0.200000003      0.002000
    0.899999976    0.699999988    0.200000003      0.002000
    0.000000000    0.800000012    0.200000003      0.002000
    0.100000001    0.800000012    0.200000003      0.002000
    0.200000003    0.800000012    0.200000003      0.002000
    0.300000012    0.800000012    0.200000003      0.002000
    0.400000006    0.800000012    0.200000003      0.002000
    0.500000000    0.800000012    0.200000003      0.002000
    0.600000024    0.800000012    0.200000003      0.002000
    0.699999988    0.800000012    0.200000003      0.002000
    0.800000012    0.800000012    0.200000003      0.002000
    0.899999976    0.800000012    0.200000003      0.002000
    0.000000000    0.899999976    0.200000003      0.002000
    0.100000001    0.899999976    0.200000003      0.002000
    0.200000003    0.899999976    0.200000003      0.002000
    0.300000012    0.899999976    0.200000003      0.002000
    0.400000006    0.899999976    0.200000003      0.002000
    0.500000000    0.899999976    0.200000003      0.002000
    0.600000024    0.899999976    0.200000003      0.002000
    0.699999988    0.899999976    0.200000003      0.002000
    0.800000012    0.899999976    0.200000003      0.002000
    0.899999976    0.899999976    0.200000003      0.002000
    0.000000000    0.000000000    0.300000012      0.002000
    0.100000001    0.000000000    0.300000012      0.002000
    0.200000003    0.000000000    0.300000012      0.002000
    0.300000012    0.000000000    0.300000012      0.002000
    0.400000006    0.000000000    0.300000012      0.002000
    0.500000000    0.000000000    0.300000012      0.002000
    0.600000024    0.000000000    0.300000012      0.002000
    0.699999988    0.000000000    0.300000012      0.002000
    0.800000012    0.000000000    0.300000012      0.002000
    0.899999976    0.000000000    0.300000012      0.002000
    0.000000000    0.100000001    0.300000012      0.002000
    0.100000001    0.100000001    0.300000012      0.002000
    0.200000003    0.100000001    0.300000012      0.002000
    0.300000012    0.100000001    0.300000012      0.002000
    0.400000006    0.100000001    0.300000012      0.002000
    0.500000000    0.100000001    0.300000012      0.002000
    0.600000024    0.100000001    0.300000012      0.002000
    0.699999988    0.100000001    0.300000012      0.002000
    0.800000012    0.100000001    0.300000012      0.002000
    0.899999976    0.100000001    0.300000012      0.002000
    0.000000000    0.200000003    0.300000012      0.002000
    0.100000001    0.200000003    0.300000012      0.002000
    0.200000003    0.200000003    0.300000012      0.002000
    0.300000012    0.200000003    0.300000012      0.002000
    0.400000006    0.200000003    0.300000012      0.002000
    0.500000000    0.200000003    0.300000012      0.002000
    0.600000024    0.200000003    0.300000012      0.002000
    0.699999988    0.200000003    0.300000012      0.002000
    0.800000012    0.200000003    0.300000012      0.002000
    0.899999976    0.200000003    0.300000012      0.002000
    0.000000000    0.300000012    0.300000012      0.002000
    0.100000001    0.300000012    0.300000012      0.002000
    0.200000003    0.300000012    0.300000012      0.002000
    0.300000012    0.300000012    0.300000012      0.002000
    0.400000006    0.300000012    0.300000012      0.002000
    0.500000000    0.300000012    0.300000012      0.002000
    0.600000024    0.300000012    0.300000012      0.002000
    0.699999988    0.300000012    0.300000012      0.002000
    0.800000012    0.300000012    0.300000012      0.002000
    0.899999976    0.300000012    0.300000012      0.002000
    0.000000000    0.400000006    0.300000012      0.002000
    0.100000001    0.400000006    0.300000012      0.002000
    0.200000003    0.400000006    0.300000012      0.002000
    0.300000012    0.400000006    0.300000012      0.002000
    0.400000006    0.400000006    0.300000012      0.002000
    0.500000000    0.400000006    0.300000012      0.002000
    0.600000024    0.400000006    0.300000012      0.002000
    0.699999988    0.400000006    0.300000012      0.002000
    0.800000012    0.400000006    0.300000012      0.002000
    0.899999976    0.400000006    0.300000012      0.002000
    0.000000000    0.500000000    0.300000012      0.002000
    0.100000001    0.500000000    0.300000012      0.002000
    0.200000003    0.500000000    0.300000012      0.002000
    0.300000012    0.500000000    0.300000012      0.002000
    0.400000006    0.500000000    0.300000012      0.002000
    0.500000000    0.500000000    0.300000012      0.002000
    0.600000024    0.500000000    0.300000012      0.002000
    0.699999988    0.500000000    0.300000012      0.002000
    0.800000012    0.500000000    0.300000012      0.002000
    0.899999976    0.500000000    0.300000012      0.002000
    0.000000000    0.600000024    0.300000012      0.002000
    0.100000001    0.600000024    0.300000012      0.002000
    0.200000003    0.600000024    0.300000012      0.002000
    0.300000012    0.600000024    0.300000012      0.002000
    0.400000006    0.600000024    0.300000012      0.002000
    0.500000000    0.600000024    0.300000012      0.002000
    0.600000024    0.600000024    0.300000012      0.002000
    0.699999988    0.600000024    0.300000012      0.002000
    0.800000012    0.600000024    0.300000012      0.002000
    0.899999976    0.600000024    0.300000012      0.002000
    0.000000000    0.699999988    0.300000012      0.002000
    0.100000001    0.699999988    0.300000012      0.002000
    0.200000003    0.699999988    0.300000012      0.002000
    0.300000012    0.699999988    0.300000012      0.002000
    0.400000006    0.699999988    0.300000012      0.002000
    0.500000000    0.699999988    0.300000012      0.002000
    0.600000024    0.699999988    0.300000012      0.002000
    0.699999988    0.699999988    0.300000012      0.002000
    0.800000012    0.699999988    0.300000012      0.002000
    0.899999976    0.699999988    0.300000012      0.002000
    0.000000000    0.800000012    0.300000012      0.002000
    0.100000001    0.800000012    0.300000012      0.002000
    0.200000003    0.800000012    0.300000012      0.002000
    0.300000012    0.800000012    0.300000012      0.002000
    0.400000006    0.800000012    0.300000012      0.002000
    0.500000000    0.800000012    0.300000012      0.002000
    0.600000024    0.800000012    0.300000012      0.002000
    0.699999988    0.800000012    0.300000012      0.002000
    0.800000012    0.800000012    0.300000012      0.002000
    0.899999976    0.800000012    0.300000012      0.002000
    0.000000000    0.899999976    0.300000012      0.002000
    0.100000001    0.899999976    0.300000012      0.002000
    0.200000003    0.899999976    0.300000012      0.002000
    0.300000012    0.899999976    0.300000012      0.002000
    0.400000006    0.899999976    0.300000012      0.002000
    0.500000000    0.899999976    0.300000012      0.002000
    0.600000024    0.899999976    0.300000012      0.002000
    0.699999988    0.899999976    0.300000012      0.002000
    0.800000012    0.899999976    0.300000012      0.002000
    0.899999976    0.899999976    0.300000012      0.002000
    0.000000000    0.000000000    0.400000006      0.002000
    0.100000001    0.000000000    0.400000006      0.002000
    0.200000003    0.000000000    0.400000006      0.002000
    0.300000012    0.000000000    0.400000006      0.002000
    0.400000006    0.000000000    0.400000006      0.002000
    0.500000000    0.000000000    0.400000006      0.002000
    0.600000024    0.000000000    0.400000006      0.002000
    0.699999988    0.000000000    0.400000006      0.002000
    0.800000012    0.000000000    0.400000006      0.002000
    0.899999976    0.000000000    0.400000006      0.002000
    0.000000000    0.100000001    0.400000006      0.002000
    0.100000001    0.100000001    0.400000006      0.002000
    0.200000003    0.100000001    0.400000006      0.002000
    0.300000012    0.100000001    0.400000006      0.002000
    0.400000006    0.100000001    0.400000006      0.002000
    0.500000000    0.100000001    0.400000006      0.002000
    0.600000024    0.100000001    0.400000006      0.002000
    0.699999988    0.100000001    0.400000006      0.002000
    0.800000012    0.100000001    0.400000006      0.002000
    0.899999976    0.100000001    0.400000006      0.002000
    0.000000000    0.200000003    0.400000006      0.002000
    0.100000001    0.200000003    0.400000006      0.002000
    0.200000003    0.200000003    0.400000006      0.002000
    0.300000012    0.200000003    0.400000006      0.002000
    0.400000006    0.200000003    0.400000006      0.002000
    0.500000000    0.200000003    0.400000006      0.002000
    0.600000024    0.200000003    0.400000006      0.002000
    0.699999988    0.200000003    0.400000006      0.002000
    0.800000012    0.200000003    0.400000006      0.002000
    0.899999976    0.200000003    0.400000006      0.002000
    0.000000000    0.300000012    0.400000006      0.002000
    0.100000001    0.300000012    0.400000006      0.002000
    0.200000003    0.300000012    0.400000006      0.002000
    0.300000012    0.300000012    0.400000006      0.002000
    0.400000006    0.300000012    0.400000006      0.002000
    0.500000000    0.300000012    0.400000006      0.002000
    0.600000024    0.300000012    0.400000006      0.002000
    0.699999988    0.300000012    0.400000006      0.002000
    0.800000012    0.300000012    0.400000006      0.002000
    0.899999976    0.300000012    0.400000006      0.002000
    0.000000000    0.400000006    0.400000006      0.002000
    0.100000001    0.400000006    0.400000006      0.002000
    0.200000003    0.400000006    0.400000006      0.002000
    0.300000012    0.400000006    0.400000006      0.002000
    0.400000006    0.400000006    0.400000006      0.002000
    0.500000000    0.400000006    0.400000006      0.002000
    0.600000024    0.400000006    0.400000006      0.002000
    0.699999988    0.400000006    0.400000006      0.002000
    0.800000012    0.400000006    0.400000006      0.002000
    0.899999976    0.400000006    0.400000006      0.002000
    0.000000000    0.500000000    0.400000006      0.002000
    0.100000001    0.500000000    0.400000006      0.002000
    0.200000003    0.500000000    0.400000006      0.002000
    0.300000012    0.500000000    0.400000006      0.002000
    0.400000006    0.500000000    0.400000006      0.002000
    0.500000000    0.500000000    0.400000006      0.002000
    0.600000024    0.500000000    0.400000006      0.002000
    0.699999988    0.500000000    0.400000006      0.002000
    0.800000012    0.500000000    0.400000006      0.002000
    0.899999976    0.500000000    0.400000006      0.002000
    0.000000000    0.600000024    0.400000006      0.002000
    0.100000001    0.600000024    0.400000006      0.002000
    0.200000003    0.600000024    0.400000006      0.002000
    0.300000012    0.600000024    0.400000006      0.002000
    0.400000006    0.600000024    0.400000006      0.002000
    0.500000000    0.600000024    0.400000006      0.002000
    0.600000024    0.600000024    0.400000006      0.002000
    0.699999988    0.600000024    0.400000006      0.002000
    0.800000012    0.600000024    0.400000006      0.002000
    0.899999976    0.600000024    0.400000006      0.002000
    0.000000000    0.699999988    0.400000006      0.002000
    0.100000001    0.699999988    0.400000006      0.002000
    0.200000003    0.699999988    0.400000006      0.002000
    0.300000012    0.699999988    0.400000006      0.002000
    0.400000006    0.699999988    0.400000006      0.002000
    0.500000000    0.699999988    0.400000006      0.002000
    0.600000024    0.699999988    0.400000006      0.002000
    0.699999988    0.699999988    0.400000006      0.002000
    0.800000012    0.699999988    0.400000006      0.002000
    0.899999976    0.699999988    0.400000006      0.002000
    0.000000000    0.800000012    0.400000006      0.002000
    0.100000001    0.800000012    0.400000006      0.002000
    0.200000003    0.800000012    0.400000006      0.002000
    0.300000012    0.800000012    0.400000006      0.002000
    0.400000006    0.800000012    0.400000006      0.002000
    0.500000000    0.800000012    0.400000006      0.002000
    0.600000024    0.800000012    0.400000006      0.002000
    0.699999988    0.800000012    0.400000006      0.002000
    0.800000012    0.800000012    0.400000006      0.002000