copper FCC bulk PBE USPP
3d in valence
 &CONTROL
    calculation = 'nscf'
    restart_mode='from_scratch',
    prefix='copper_US',
    tprnfor = .FALSE.
    pseudo_dir = './'
 /
 &SYSTEM
      ibrav=2,
      celldm(1)=6.9678
      nat=1,
      ntyp=1,
      ecutwfc=25,
      ecutrho=200,
      occupations='smearing',
      smearing='gaussian',
      degauss=0.006,
      nbnd = 20
 /
 &ELECTRONS
    electron_maxstep = 50,
    mixing_mode = 'plain'
    mixing_beta = 0.3
    conv_thr =  1.0d-8
 /
ATOMIC_SPECIES
 Cu  63.546  Cu.pbe-d-rrkjus.UPF
ATOMIC_POSITIONS (crystal)
Cu   0.00000000      0.00000000      0.00000000
K_POINTS (crystal)
64
        0.0000000000         0.0000000000         0.0000000000 0.015625000000
        0.0000000000         0.0000000000         0.2500000000 0.015625000000
        0.0000000000         0.0000000000         0.5000000000 0.015625000000
        0.0000000000         0.0000000000         0.7500000000 0.015625000000
        0.0000000000         0.2500000000         0.0000000000 0.015625000000
        0.0000000000         0.2500000000         0.2500000000 0.015625000000
        0.0000000000         0.2500000000         0.5000000000 0.015625000000
        0.0000000000         0.2500000000         0.7500000000 0.015625000000
        0.0000000000         0.5000000000         0.0000000000 0.015625000000
        0.0000000000         0.5000000000         0.2500000000 0.015625000000
        0.0000000000         0.5000000000         0.5000000000 0.015625000000
        0.0000000000         0.5000000000         0.7500000000 0.015625000000
        0.0000000000         0.7500000000         0.0000000000 0.015625000000
        0.0000000000         0.7500000000         0.2500000000 0.015625000000
        0.0000000000         0.7500000000         0.5000000000 0.015625000000
        0.0000000000         0.7500000000         0.7500000000 0.015625000000
        0.2500000000         0.0000000000         0.0000000000 0.015625000000
        0.2500000000         0.0000000000         0.2500000000 0.015625000000
        0.2500000000         0.0000000000         0.5000000000 0.015625000000
        0.2500000000         0.0000000000         0.7500000000 0.015625000000
        0.2500000000         0.2500000000         0.0000000000 0.015625000000
        0.2500000000         0.2500000000         0.2500000000 0.015625000000
        0.2500000000         0.2500000000         0.5000000000 0.015625000000
        0.2500000000         0.2500000000         0.7500000000 0.015625000000
        0.2500000000         0.5000000000         0.0000000000 0.015625000000
        0.2500000000         0.5000000000         0.2500000000 0.015625000000
        0.2500000000         0.5000000000         0.5000000000 0.015625000000
        0.2500000000         0.5000000000         0.7500000000 0.015625000000
        0.2500000000         0.7500000000         0.0000000000 0.015625000000
        0.2500000000         0.7500000000         0.2500000000 0.015625000000
        0.2500000000         0.7500000000         0.5000000000 0.015625000000
        0.2500000000         0.7500000000         0.7500000000 0.015625000000
        0.5000000000         0.0000000000         0.0000000000 0.015625000000
        0.5000000000         0.0000000000         0.2500000000 0.015625000000
        0.5000000000         0.0000000000         0.5000000000 0.015625000000
        0.5000000000         0.0000000000         0.7500000000 0.015625000000
        0.5000000000         0.2500000000         0.0000000000 0.015625000000
        0.5000000000         0.2500000000         0.2500000000 0.015625000000
        0.5000000000         0.2500000000         0.5000000000 0.015625000000
        0.5000000000         0.2500000000         0.7500000000 0.015625000000
        0.5000000000         0.5000000000         0.0000000000 0.015625000000
        0.5000000000         0.5000000000         0.2500000000 0.015625000000
        0.5000000000         0.5000000000         0.5000000000 0.015625000000
        0.5000000000         0.5000000000         0.7500000000 0.015625000000
        0.5000000000         0.7500000000         0.0000000000 0.015625000000
        0.5000000000         0.7500000000         0.2500000000 0.015625000000
        0.5000000000         0.7500000000         0.5000000000 0.015625000000
        0.5000000000         0.7500000000         0.7500000000 0.015625000000
        0.7500000000         0.0000000000         0.0000000000 0.015625000000
        0.7500000000         0.0000000000         0.2500000000 0.015625000000
        0.7500000000         0.0000000000         0.5000000000 0.015625000000
        0.7500000000         0.0000000000         0.7500000000 0.015625000000
        0.7500000000         0.2500000000         0.0000000000 0.015625000000
        0.7500000000         0.2500000000         0.2500000000 0.015625000000
        0.7500000000         0.2500000000         0.5000000000 0.015625000000
        0.7500000000         0.2500000000         0.7500000000 0.015625000000
        0.7500000000         0.5000000000         0.0000000000 0.015625000000
        0.7500000000         0.5000000000         0.2500000000 0.015625000000
        0.7500000000         0.5000000000         0.5000000000 0.015625000000
        0.7500000000         0.5000000000         0.7500000000 0.015625000000
        0.7500000000         0.7500000000         0.0000000000 0.015625000000
        0.7500000000         0.7500000000         0.2500000000 0.015625000000
        0.7500000000         0.7500000000         0.5000000000 0.015625000000
        0.7500000000         0.7500000000         0.7500000000 0.015625000000




