
 &INPUT
   prefix = 'copper'
   postfix = '_WanT'
   work_dir = './'
   datatype = 'modulus'
   output_fmt = 'xsf'
   wann = '1-6'
   r1min = -1.5
   r1max =  1.5
   r2min = -1.5
   r2max =  1.5
   r3min = -1.5
   r3max =  1.5
 /
