
&CONTROL
   prefix = 'copper'
   postfix = '_WanT'
   work_dir = './'
/

&SUBSPACE
   win_max = 19.78
   froz_max = 12.7979
   dimwann = 6
   maxiter_dis = 400
/

&LOCALIZATION
   maxiter0_wan = 1
   maxiter1_wan = 2000
   alpha1_wan = 0.5
   ncg = 9    
   ordering_mode = 'none'
/

WANNIER_CENTERS {crystal}
 1gauss    0.0050   0.0050   0.0050   0  0   1.0
 1gauss    0.0000   0.0000   0.0000   2  2   1.0
 1gauss    0.0000   0.0000   0.0000   2  1   1.0
 1gauss    0.0000   0.0000   0.0000   2  0   1.0
 1gauss    0.0000   0.0000   0.0000   2 -1   1.0
 1gauss    0.0000   0.0000   0.0000   2 -2   1.0

