
&CONTROL
   prefix = 'copper_US'
   postfix = '_WanT'
   work_dir = './'
/

&SUBSPACE
   win_max = 20.04
   dimwann = 6
   maxiter_dis = 400
/

&LOCALIZATION
   maxiter0_wan = 200
   maxiter1_wan = 1000
   alpha1_wan = 0.3
   ncg = 9    
   nshells = 1  
   nwhich(1) = 1  
   ordering_mode = 'none'
/

WANNIER_CENTERS {crystal}
 1gauss    0.0050   0.0050   0.0050   0  0  3  1.0
 1gauss    0.0000   0.0000   0.0000   2  2  3  1.0
 1gauss    0.0000   0.0000   0.0000   2  1  3  1.0
 1gauss    0.0000   0.0000   0.0000   2  0  3  1.0
 1gauss    0.0000   0.0000   0.0000   2 -1  3  1.0
 1gauss    0.0000   0.0000   0.0000   2 -2  3  1.0
