
&CONTROL
   prefix = 'copper'
   postfix = '_WanT'
   work_dir = './'
/

&SUBSPACE
   win_max = 19.78
   froz_max = 12.7979
   dimwann = 6
   maxiter_dis = 400
/

&LOCALIZATION
   maxiter0_wan = 10000
   maxiter1_wan = 100000
   alpha1_wan = 0.3
   ncg = 5    
   wannier_thr = 1.0e-7
/

WANNIER_CENTERS 
 atomic    1   0  0   1.0
 atomic    1   2  2   1.0
 atomic    1   2  1   1.0
 atomic    1   2  0   1.0
 atomic    1   2 -1   1.0
 atomic    1   2 -2   1.0

