
&CONTROL
   prefix = 'cobalt_US'
   postfix = '_WanT'
   verbosity = 'high'
   work_dir = './'
/

&SUBSPACE
   win_max = 28.00
   froz_max = 11.6181
   dimwann = 6
   maxiter_dis = 400
/

&LOCALIZATION
   maxiter0_wan = 1
   maxiter1_wan = 60000
   alpha1_wan = 0.3
   ncg = 5    
/

WANNIER_CENTERS 
 atomic    1   0  0   1.0
 atomic    1   2  2   1.0
 atomic    1   2  1   1.0
 atomic    1   2  0   1.0
 atomic    1   2 -1   1.0
 atomic    1   2 -2   1.0

