
 &INPUT
   prefix         = 'silicon'
   postfix        = '_WanT'
   work_dir       = './SCRATCH'
   datafile_dft   = './SCRATCH/silicon.save/atomic_proj.dat'
   fileout        = './bands_Si.dat'
   nkpts_in       = 7
   nkpts_max      = 500
   do_orthoovp    = .FALSE.
   atmproj_sh     = 15.0
   atmproj_thr    = 0.9
 /

G   0.000  0.000  0.000
X   0.500  0.500  0.000
W   0.750  0.500  0.250
L   0.500  0.500  0.500
G   0.000  0.000  0.000
K   0.750  0.375  0.375
W   0.750  0.500  0.250


