Infinite Gold Chain
1 atom/cell, Lattice Parameter = 2.5 Ang
   &CONTROL
      calculation = 'bands',
      restart_mode='from_scratch',
      verbosity='default',
      prefix='gold1',
      nstep=100,
      tstress = .false.,
      tprnfor = .true.,
      pseudo_dir = '../pseudo',
      outdir = './SCRATCH/'
      wf_collect = .TRUE.
      verbosity = "high"
   /
   &SYSTEM
      ibrav=8, 
      celldm(1)=20.0, 
      celldm(2)=1.0,
      celldm(3)=0.236216
      nat=1, 
      ntyp=1,
      ecutwfc=50.0,
      ecutrho=200.0,
      occupations='smearing',
      smearing='gaussian',
      degauss=0.01,
      nbnd=8
      noinv = .TRUE.
      nosym = .TRUE.
   /
   &ELECTRONS
      electron_maxstep = 100,
      mixing_mode = 'plain',
      mixing_beta = 0.3,
      conv_thr =  1.0d-8,
   /
ATOMIC_SPECIES
  Au   196.9665   Au11pw91.mt.UPF
ATOMIC_POSITIONS {angstrom}
Au   0.0  0.0 0.0
K_POINTS {crystal}
500
   0.00000  0.00000  0.00000   1.0 
   0.00000  0.00000  0.00100   1.0 
   0.00000  0.00000  0.00200   1.0 
   0.00000  0.00000  0.00301   1.0 
   0.00000  0.00000  0.00401   1.0 
   0.00000  0.00000  0.00501   1.0 
   0.00000  0.00000  0.00601   1.0 
   0.00000  0.00000  0.00701   1.0 
   0.00000  0.00000  0.00802   1.0 
   0.00000  0.00000  0.00902   1.0 
   0.00000  0.00000  0.01002   1.0 
   0.00000  0.00000  0.01102   1.0 
   0.00000  0.00000  0.01202   1.0 
   0.00000  0.00000  0.01303   1.0 
   0.00000  0.00000  0.01403   1.0 
   0.00000  0.00000  0.01503   1.0 
   0.00000  0.00000  0.01603   1.0 
   0.00000  0.00000  0.01703   1.0 
   0.00000  0.00000  0.01804   1.0 
   0.00000  0.00000  0.01904   1.0 
   0.00000  0.00000  0.02004   1.0 
   0.00000  0.00000  0.02104   1.0 
   0.00000  0.00000  0.02204   1.0 
   0.00000  0.00000  0.02305   1.0 
   0.00000  0.00000  0.02405   1.0 
   0.00000  0.00000  0.02505   1.0 
   0.00000  0.00000  0.02605   1.0 
   0.00000  0.00000  0.02705   1.0 
   0.00000  0.00000  0.02806   1.0 
   0.00000  0.00000  0.02906   1.0 
   0.00000  0.00000  0.03006   1.0 
   0.00000  0.00000  0.03106   1.0 
   0.00000  0.00000  0.03206   1.0 
   0.00000  0.00000  0.03307   1.0 
   0.00000  0.00000  0.03407   1.0 
   0.00000  0.00000  0.03507   1.0 
   0.00000  0.00000  0.03607   1.0 
   0.00000  0.00000  0.03707   1.0 
   0.00000  0.00000  0.03808   1.0 
   0.00000  0.00000  0.03908   1.0 
   0.00000  0.00000  0.04008   1.0 
   0.00000  0.00000  0.04108   1.0 
   0.00000  0.00000  0.04208   1.0 
   0.00000  0.00000  0.04309   1.0 
   0.00000  0.00000  0.04409   1.0 
   0.00000  0.00000  0.04509   1.0 
   0.00000  0.00000  0.04609   1.0 
   0.00000  0.00000  0.04709   1.0 
   0.00000  0.00000  0.04810   1.0 
   0.00000  0.00000  0.04910   1.0 
   0.00000  0.00000  0.05010   1.0 
   0.00000  0.00000  0.05110   1.0 
   0.00000  0.00000  0.05210   1.0 
   0.00000  0.00000  0.05311   1.0 
   0.00000  0.00000  0.05411   1.0 
   0.00000  0.00000  0.05511   1.0 
   0.00000  0.00000  0.05611   1.0 
   0.00000  0.00000  0.05711   1.0 
   0.00000  0.00000  0.05812   1.0 
   0.00000  0.00000  0.05912   1.0 
   0.00000  0.00000  0.06012   1.0 
   0.00000  0.00000  0.06112   1.0 
   0.00000  0.00000  0.06212   1.0 
   0.00000  0.00000  0.06313   1.0 
   0.00000  0.00000  0.06413   1.0 
   0.00000  0.00000  0.06513   1.0 
   0.00000  0.00000  0.06613   1.0 
   0.00000  0.00000  0.06713   1.0 
   0.00000  0.00000  0.06814   1.0 
   0.00000  0.00000  0.06914   1.0 
   0.00000  0.00000  0.07014   1.0 
   0.00000  0.00000  0.07114   1.0 
   0.00000  0.00000  0.07214   1.0 
   0.00000  0.00000  0.07315   1.0 
   0.00000  0.00000  0.07415   1.0 
   0.00000  0.00000  0.07515   1.0 
   0.00000  0.00000  0.07615   1.0 
   0.00000  0.00000  0.07715   1.0 
   0.00000  0.00000  0.07816   1.0 
   0.00000  0.00000  0.07916   1.0 
   0.00000  0.00000  0.08016   1.0 
   0.00000  0.00000  0.08116   1.0 
   0.00000  0.00000  0.08216   1.0 
   0.00000  0.00000  0.08317   1.0 
   0.00000  0.00000  0.08417   1.0 
   0.00000  0.00000  0.08517   1.0 
   0.00000  0.00000  0.08617   1.0 
   0.00000  0.00000  0.08717   1.0 
   0.00000  0.00000  0.08818   1.0 
   0.00000  0.00000  0.08918   1.0 
   0.00000  0.00000  0.09018   1.0 
   0.00000  0.00000  0.09118   1.0 
   0.00000  0.00000  0.09218   1.0 
   0.00000  0.00000  0.09319   1.0 
   0.00000  0.00000  0.09419   1.0 
   0.00000  0.00000  0.09519   1.0 
   0.00000  0.00000  0.09619   1.0 
   0.00000  0.00000  0.09719   1.0 
   0.00000  0.00000  0.09820   1.0 
   0.00000  0.00000  0.09920   1.0 
   0.00000  0.00000  0.10020   1.0 
   0.00000  0.00000  0.10120   1.0 
   0.00000  0.00000  0.10220   1.0 
   0.00000  0.00000  0.10321   1.0 
   0.00000  0.00000  0.10421   1.0 
   0.00000  0.00000  0.10521   1.0 
   0.00000  0.00000  0.10621   1.0 
   0.00000  0.00000  0.10721   1.0 
   0.00000  0.00000  0.10822   1.0 
   0.00000  0.00000  0.10922   1.0 
   0.00000  0.00000  0.11022   1.0 
   0.00000  0.00000  0.11122   1.0 
   0.00000  0.00000  0.11222   1.0 
   0.00000  0.00000  0.11323   1.0 
   0.00000  0.00000  0.11423   1.0 
   0.00000  0.00000  0.11523   1.0 
   0.00000  0.00000  0.11623   1.0 
   0.00000  0.00000  0.11723   1.0 
   0.00000  0.00000  0.11824   1.0 
   0.00000  0.00000  0.11924   1.0 
   0.00000  0.00000  0.12024   1.0 
   0.00000  0.00000  0.12124   1.0 
   0.00000  0.00000  0.12224   1.0 
   0.00000  0.00000  0.12325   1.0 
   0.00000  0.00000  0.12425   1.0 
   0.00000  0.00000  0.12525   1.0 
   0.00000  0.00000  0.12625   1.0 
   0.00000  0.00000  0.12725   1.0 
   0.00000  0.00000  0.12826   1.0 
   0.00000  0.00000  0.12926   1.0 
   0.00000  0.00000  0.13026   1.0 
   0.00000  0.00000  0.13126   1.0 
   0.00000  0.00000  0.13226   1.0 
   0.00000  0.00000  0.13327   1.0 
   0.00000  0.00000  0.13427   1.0 
   0.00000  0.00000  0.13527   1.0 
   0.00000  0.00000  0.13627   1.0 
   0.00000  0.00000  0.13727   1.0 
   0.00000  0.00000  0.13828   1.0 
   0.00000  0.00000  0.13928   1.0 
   0.00000  0.00000  0.14028   1.0 
   0.00000  0.00000  0.14128   1.0 
   0.00000  0.00000  0.14228   1.0 
   0.00000  0.00000  0.14329   1.0 
   0.00000  0.00000  0.14429   1.0 
   0.00000  0.00000  0.14529   1.0 
   0.00000  0.00000  0.14629   1.0 
   0.00000  0.00000  0.14729   1.0 
   0.00000  0.00000  0.14830   1.0 
   0.00000  0.00000  0.14930   1.0 
   0.00000  0.00000  0.15030   1.0 
   0.00000  0.00000  0.15130   1.0 
   0.00000  0.00000  0.15230   1.0 
   0.00000  0.00000  0.15331   1.0 
   0.00000  0.00000  0.15431   1.0 
   0.00000  0.00000  0.15531   1.0 
   0.00000  0.00000  0.15631   1.0 
   0.00000  0.00000  0.15731   1.0 
   0.00000  0.00000  0.15832   1.0 
   0.00000  0.00000  0.15932   1.0 
   0.00000  0.00000  0.16032   1.0 
   0.00000  0.00000  0.16132   1.0 
   0.00000  0.00000  0.16232   1.0 
   0.00000  0.00000  0.16333   1.0 
   0.00000  0.00000  0.16433   1.0 
   0.00000  0.00000  0.16533   1.0 
   0.00000  0.00000  0.16633   1.0 
   0.00000  0.00000  0.16733   1.0 
   0.00000  0.00000  0.16834   1.0 
   0.00000  0.00000  0.16934   1.0 
   0.00000  0.00000  0.17034   1.0 
   0.00000  0.00000  0.17134   1.0 
   0.00000  0.00000  0.17234   1.0 
   0.00000  0.00000  0.17335   1.0 
   0.00000  0.00000  0.17435   1.0 
   0.00000  0.00000  0.17535   1.0 
   0.00000  0.00000  0.17635   1.0 
   0.00000  0.00000  0.17735   1.0 
   0.00000  0.00000  0.17836   1.0 
   0.00000  0.00000  0.17936   1.0 
   0.00000  0.00000  0.18036   1.0 
   0.00000  0.00000  0.18136   1.0 
   0.00000  0.00000  0.18236   1.0 
   0.00000  0.00000  0.18337   1.0 
   0.00000  0.00000  0.18437   1.0 
   0.00000  0.00000  0.18537   1.0 
   0.00000  0.00000  0.18637   1.0 
   0.00000  0.00000  0.18737   1.0 
   0.00000  0.00000  0.18838   1.0 
   0.00000  0.00000  0.18938   1.0 
   0.00000  0.00000  0.19038   1.0 
   0.00000  0.00000  0.19138   1.0 
   0.00000  0.00000  0.19238   1.0 
   0.00000  0.00000  0.19339   1.0 
   0.00000  0.00000  0.19439   1.0 
   0.00000  0.00000  0.19539   1.0 
   0.00000  0.00000  0.19639   1.0 
   0.00000  0.00000  0.19739   1.0 
   0.00000  0.00000  0.19840   1.0 
   0.00000  0.00000  0.19940   1.0 
   0.00000  0.00000  0.20040   1.0 
   0.00000  0.00000  0.20140   1.0 
   0.00000  0.00000  0.20240   1.0 
   0.00000  0.00000  0.20341   1.0 
   0.00000  0.00000  0.20441   1.0 
   0.00000  0.00000  0.20541   1.0 
   0.00000  0.00000  0.20641   1.0 
   0.00000  0.00000  0.20741   1.0 
   0.00000  0.00000  0.20842   1.0 
   0.00000  0.00000  0.20942   1.0 
   0.00000  0.00000  0.21042   1.0 
   0.00000  0.00000  0.21142   1.0 
   0.00000  0.00000  0.21242   1.0 
   0.00000  0.00000  0.21343   1.0 
   0.00000  0.00000  0.21443   1.0 
   0.00000  0.00000  0.21543   1.0 
   0.00000  0.00000  0.21643   1.0 
   0.00000  0.00000  0.21743   1.0 
   0.00000  0.00000  0.21844   1.0 
   0.00000  0.00000  0.21944   1.0 
   0.00000  0.00000  0.22044   1.0 
   0.00000  0.00000  0.22144   1.0 
   0.00000  0.00000  0.22244   1.0 
   0.00000  0.00000  0.22345   1.0 
   0.00000  0.00000  0.22445   1.0 
   0.00000  0.00000  0.22545   1.0 
   0.00000  0.00000  0.22645   1.0 
   0.00000  0.00000  0.22745   1.0 
   0.00000  0.00000  0.22846   1.0 
   0.00000  0.00000  0.22946   1.0 
   0.00000  0.00000  0.23046   1.0 
   0.00000  0.00000  0.23146   1.0 
   0.00000  0.00000  0.23246   1.0 
   0.00000  0.00000  0.23347   1.0 
   0.00000  0.00000  0.23447   1.0 
   0.00000  0.00000  0.23547   1.0 
   0.00000  0.00000  0.23647   1.0 
   0.00000  0.00000  0.23747   1.0 
   0.00000  0.00000  0.23848   1.0 
   0.00000  0.00000  0.23948   1.0 
   0.00000  0.00000  0.24048   1.0 
   0.00000  0.00000  0.24148   1.0 
   0.00000  0.00000  0.24248   1.0 
   0.00000  0.00000  0.24349   1.0 
   0.00000  0.00000  0.24449   1.0 
   0.00000  0.00000  0.24549   1.0 
   0.00000  0.00000  0.24649   1.0 
   0.00000  0.00000  0.24749   1.0 
   0.00000  0.00000  0.24850   1.0 
   0.00000  0.00000  0.24950   1.0 
   0.00000  0.00000  0.25050   1.0 
   0.00000  0.00000  0.25150   1.0 
   0.00000  0.00000  0.25251   1.0 
   0.00000  0.00000  0.25351   1.0 
   0.00000  0.00000  0.25451   1.0 
   0.00000  0.00000  0.25551   1.0 
   0.00000  0.00000  0.25651   1.0 
   0.00000  0.00000  0.25752   1.0 
   0.00000  0.00000  0.25852   1.0 
   0.00000  0.00000  0.25952   1.0 
   0.00000  0.00000  0.26052   1.0 
   0.00000  0.00000  0.26152   1.0 
   0.00000  0.00000  0.26253   1.0 
   0.00000  0.00000  0.26353   1.0 
   0.00000  0.00000  0.26453   1.0 
   0.00000  0.00000  0.26553   1.0 
   0.00000  0.00000  0.26653   1.0 
   0.00000  0.00000  0.26754   1.0 
   0.00000  0.00000  0.26854   1.0 
   0.00000  0.00000  0.26954   1.0 
   0.00000  0.00000  0.27054   1.0 
   0.00000  0.00000  0.27154   1.0 
   0.00000  0.00000  0.27255   1.0 
   0.00000  0.00000  0.27355   1.0 
   0.00000  0.00000  0.27455   1.0 
   0.00000  0.00000  0.27555   1.0 
   0.00000  0.00000  0.27655   1.0 
   0.00000  0.00000  0.27756   1.0 
   0.00000  0.00000  0.27856   1.0 
   0.00000  0.00000  0.27956   1.0 
   0.00000  0.00000  0.28056   1.0 
   0.00000  0.00000  0.28156   1.0 
   0.00000  0.00000  0.28257   1.0 
   0.00000  0.00000  0.28357   1.0 
   0.00000  0.00000  0.28457   1.0 
   0.00000  0.00000  0.28557   1.0 
   0.00000  0.00000  0.28657   1.0 
   0.00000  0.00000  0.28758   1.0 
   0.00000  0.00000  0.28858   1.0 
   0.00000  0.00000  0.28958   1.0 
   0.00000  0.00000  0.29058   1.0 
   0.00000  0.00000  0.29158   1.0 
   0.00000  0.00000  0.29259   1.0 
   0.00000  0.00000  0.29359   1.0 
   0.00000  0.00000  0.29459   1.0 
   0.00000  0.00000  0.29559   1.0 
   0.00000  0.00000  0.29659   1.0 
   0.00000  0.00000  0.29760   1.0 
   0.00000  0.00000  0.29860   1.0 
   0.00000  0.00000  0.29960   1.0 
   0.00000  0.00000  0.30060   1.0 
   0.00000  0.00000  0.30160   1.0 
   0.00000  0.00000  0.30261   1.0 
   0.00000  0.00000  0.30361   1.0 
   0.00000  0.00000  0.30461   1.0 
   0.00000  0.00000  0.30561   1.0 
   0.00000  0.00000  0.30661   1.0 
   0.00000  0.00000  0.30762   1.0 
   0.00000  0.00000  0.30862   1.0 
   0.00000  0.00000  0.30962   1.0 
   0.00000  0.00000  0.31062   1.0 
   0.00000  0.00000  0.31162   1.0 
   0.00000  0.00000  0.31263   1.0 
   0.00000  0.00000  0.31363   1.0 
   0.00000  0.00000  0.31463   1.0 
   0.00000  0.00000  0.31563   1.0 
   0.00000  0.00000  0.31663   1.0 
   0.00000  0.00000  0.31764   1.0 
   0.00000  0.00000  0.31864   1.0 
   0.00000  0.00000  0.31964   1.0 
   0.00000  0.00000  0.32064   1.0 
   0.00000  0.00000  0.32164   1.0 
   0.00000  0.00000  0.32265   1.0 
   0.00000  0.00000  0.32365   1.0 
   0.00000  0.00000  0.32465   1.0 
   0.00000  0.00000  0.32565   1.0 
   0.00000  0.00000  0.32665   1.0 
   0.00000  0.00000  0.32766   1.0 
   0.00000  0.00000  0.32866   1.0 
   0.00000  0.00000  0.32966   1.0 
   0.00000  0.00000  0.33066   1.0 
   0.00000  0.00000  0.33166   1.0 
   0.00000  0.00000  0.33267   1.0 
   0.00000  0.00000  0.33367   1.0 
   0.00000  0.00000  0.33467   1.0 
   0.00000  0.00000  0.33567   1.0 
   0.00000  0.00000  0.33667   1.0 
   0.00000  0.00000  0.33768   1.0 
   0.00000  0.00000  0.33868   1.0 
   0.00000  0.00000  0.33968   1.0 
   0.00000  0.00000  0.34068   1.0 
   0.00000  0.00000  0.34168   1.0 
   0.00000  0.00000  0.34269   1.0 
   0.00000  0.00000  0.34369   1.0 
   0.00000  0.00000  0.34469   1.0 
   0.00000  0.00000  0.34569   1.0 
   0.00000  0.00000  0.34669   1.0 
   0.00000  0.00000  0.34770   1.0 
   0.00000  0.00000  0.34870   1.0 
   0.00000  0.00000  0.34970   1.0 
   0.00000  0.00000  0.35070   1.0 
   0.00000  0.00000  0.35170   1.0 
   0.00000  0.00000  0.35271   1.0 
   0.00000  0.00000  0.35371   1.0 
   0.00000  0.00000  0.35471   1.0 
   0.00000  0.00000  0.35571   1.0 
   0.00000  0.00000  0.35671   1.0 
   0.00000  0.00000  0.35772   1.0 
   0.00000  0.00000  0.35872   1.0 
   0.00000  0.00000  0.35972   1.0 
   0.00000  0.00000  0.36072   1.0 
   0.00000  0.00000  0.36172   1.0 
   0.00000  0.00000  0.36273   1.0 
   0.00000  0.00000  0.36373   1.0 
   0.00000  0.00000  0.36473   1.0 
   0.00000  0.00000  0.36573   1.0 
   0.00000  0.00000  0.36673   1.0 
   0.00000  0.00000  0.36774   1.0 
   0.00000  0.00000  0.36874   1.0 
   0.00000  0.00000  0.36974   1.0 
   0.00000  0.00000  0.37074   1.0 
   0.00000  0.00000  0.37174   1.0 
   0.00000  0.00000  0.37275   1.0 
   0.00000  0.00000  0.37375   1.0 
   0.00000  0.00000  0.37475   1.0 
   0.00000  0.00000  0.37575   1.0 
   0.00000  0.00000  0.37675   1.0 
   0.00000  0.00000  0.37776   1.0 
   0.00000  0.00000  0.37876   1.0 
   0.00000  0.00000  0.37976   1.0 
   0.00000  0.00000  0.38076   1.0 
   0.00000  0.00000  0.38176   1.0 
   0.00000  0.00000  0.38277   1.0 
   0.00000  0.00000  0.38377   1.0 
   0.00000  0.00000  0.38477   1.0 
   0.00000  0.00000  0.38577   1.0 
   0.00000  0.00000  0.38677   1.0 
   0.00000  0.00000  0.38778   1.0 
   0.00000  0.00000  0.38878   1.0 
   0.00000  0.00000  0.38978   1.0 
   0.00000  0.00000  0.39078   1.0 
   0.00000  0.00000  0.39178   1.0 
   0.00000  0.00000  0.39279   1.0 
   0.00000  0.00000  0.39379   1.0 
   0.00000  0.00000  0.39479   1.0 
   0.00000  0.00000  0.39579   1.0 
   0.00000  0.00000  0.39679   1.0 
   0.00000  0.00000  0.39780   1.0 
   0.00000  0.00000  0.39880   1.0 
   0.00000  0.00000  0.39980   1.0 
   0.00000  0.00000  0.40080   1.0 
   0.00000  0.00000  0.40180   1.0 
   0.00000  0.00000  0.40281   1.0 
   0.00000  0.00000  0.40381   1.0 
   0.00000  0.00000  0.40481   1.0 
   0.00000  0.00000  0.40581   1.0 
   0.00000  0.00000  0.40681   1.0 
   0.00000  0.00000  0.40782   1.0 
   0.00000  0.00000  0.40882   1.0 
   0.00000  0.00000  0.40982   1.0 
   0.00000  0.00000  0.41082   1.0 
   0.00000  0.00000  0.41182   1.0 
   0.00000  0.00000  0.41283   1.0 
   0.00000  0.00000  0.41383   1.0 
   0.00000  0.00000  0.41483   1.0 
   0.00000  0.00000  0.41583   1.0 
   0.00000  0.00000  0.41683   1.0 
   0.00000  0.00000  0.41784   1.0 
   0.00000  0.00000  0.41884   1.0 
   0.00000  0.00000  0.41984   1.0 
   0.00000  0.00000  0.42084   1.0 
   0.00000  0.00000  0.42184   1.0 
   0.00000  0.00000  0.42285   1.0 
   0.00000  0.00000  0.42385   1.0 
   0.00000  0.00000  0.42485   1.0 
   0.00000  0.00000  0.42585   1.0 
   0.00000  0.00000  0.42685   1.0 
   0.00000  0.00000  0.42786   1.0 
   0.00000  0.00000  0.42886   1.0 
   0.00000  0.00000  0.42986   1.0 
   0.00000  0.00000  0.43086   1.0 
   0.00000  0.00000  0.43186   1.0 
   0.00000  0.00000  0.43287   1.0 
   0.00000  0.00000  0.43387   1.0 
   0.00000  0.00000  0.43487   1.0 
   0.00000  0.00000  0.43587   1.0 
   0.00000  0.00000  0.43687   1.0 
   0.00000  0.00000  0.43788   1.0 
   0.00000  0.00000  0.43888   1.0 
   0.00000  0.00000  0.43988   1.0 
   0.00000  0.00000  0.44088   1.0 
   0.00000  0.00000  0.44188   1.0 
   0.00000  0.00000  0.44289   1.0 
   0.00000  0.00000  0.44389   1.0 
   0.00000  0.00000  0.44489   1.0 
   0.00000  0.00000  0.44589   1.0 
   0.00000  0.00000  0.44689   1.0 
   0.00000  0.00000  0.44790   1.0 
   0.00000  0.00000  0.44890   1.0 
   0.00000  0.00000  0.44990   1.0 
   0.00000  0.00000  0.45090   1.0 
   0.00000  0.00000  0.45190   1.0 
   0.00000  0.00000  0.45291   1.0 
   0.00000  0.00000  0.45391   1.0 
   0.00000  0.00000  0.45491   1.0 
   0.00000  0.00000  0.45591   1.0 
   0.00000  0.00000  0.45691   1.0 
   0.00000  0.00000  0.45792   1.0 
   0.00000  0.00000  0.45892   1.0 
   0.00000  0.00000  0.45992   1.0 
   0.00000  0.00000  0.46092   1.0 
   0.00000  0.00000  0.46192   1.0 
   0.00000  0.00000  0.46293   1.0 
   0.00000  0.00000  0.46393   1.0 
   0.00000  0.00000  0.46493   1.0 
   0.00000  0.00000  0.46593   1.0 
   0.00000  0.00000  0.46693   1.0 
   0.00000  0.00000  0.46794   1.0 
   0.00000  0.00000  0.46894   1.0 
   0.00000  0.00000  0.46994   1.0 
   0.00000  0.00000  0.47094   1.0 
   0.00000  0.00000  0.47194   1.0 
   0.00000  0.00000  0.47295   1.0 
   0.00000  0.00000  0.47395   1.0 
   0.00000  0.00000  0.47495   1.0 
   0.00000  0.00000  0.47595   1.0 
   0.00000  0.00000  0.47695   1.0 
   0.00000  0.00000  0.47796   1.0 
   0.00000  0.00000  0.47896   1.0 
   0.00000  0.00000  0.47996   1.0 
   0.00000  0.00000  0.48096   1.0 
   0.00000  0.00000  0.48196   1.0 
   0.00000  0.00000  0.48297   1.0 
   0.00000  0.00000  0.48397   1.0 
   0.00000  0.00000  0.48497   1.0 
   0.00000  0.00000  0.48597   1.0 
   0.00000  0.00000  0.48697   1.0 
   0.00000  0.00000  0.48798   1.0 
   0.00000  0.00000  0.48898   1.0 
   0.00000  0.00000  0.48998   1.0 
   0.00000  0.00000  0.49098   1.0 
   0.00000  0.00000  0.49198   1.0 
   0.00000  0.00000  0.49299   1.0 
   0.00000  0.00000  0.49399   1.0 
   0.00000  0.00000  0.49499   1.0 
   0.00000  0.00000  0.49599   1.0 
   0.00000  0.00000  0.49699   1.0 
   0.00000  0.00000  0.49800   1.0 
   0.00000  0.00000  0.49900   1.0 
   0.00000  0.00000  0.50000   1.0 


