
 &INPUT
   prefix = 'cmplx'
   postfix = '_WanT'
   work_dir = './SCRATCH'
   fileout = 'dos_cmplx.dat'
   nk(1) = 30
   nk(2) = 30
   nk(3) = 1
   delta = 0.02
   smearing_type = 'gaussian'
   projdos = .TRUE.
 /

