Al plane + H2 molecule

   &CONTROL
      calculation = 'nscf',
      restart_mode='from_scratch',
      prefix='cmplx',
      pseudo_dir = '../pseudo',
      outdir = './SCRATCH/'
      wf_collect = .TRUE.
   /
   &SYSTEM
      ibrav=8,
      celldm(1)=16.0,
      celldm(2)=1.0
      celldm(3)=1.0
      nat=18,
      ntyp=2,
      ecutwfc=25.0,
      ecutrho=150.0,
      occupations='smearing',
      smearing='methfessel-paxton',
      degauss=0.01,
      nosym = .TRUE.
      noinv = .TRUE.
      nbnd  = 100 
   /
   &ELECTRONS
      conv_thr =  1.0d-8,
!      startingwfc='file'
   /
ATOMIC_SPECIES
  Al 26.98 Al.pz-vbc.UPF
   H  1.0   H.pz-vbc.UPF
ATOMIC_POSITIONS alat
Al   0.0   0.0   0.0
Al   0.25  0.0   0.0
Al   0.50  0.0   0.0
Al   0.75  0.0   0.0
Al   0.0   0.25  0.0
Al   0.25  0.25  0.0
Al   0.50  0.25  0.0
Al   0.75  0.25  0.0
Al   0.0   0.50  0.0
Al   0.25  0.50  0.0
Al   0.50  0.50  0.0
Al   0.75  0.50  0.0
Al   0.0   0.75  0.0
Al   0.25  0.75  0.0
Al   0.50  0.75  0.0
Al   0.75  0.75  0.0
H    0.5   0.5   0.2
H    0.5   0.5   0.325
K_POINTS {automatic}
4 4 1  0 0 0


