graphene sheet

   &CONTROL
      calculation = 'scf',
      restart_mode='from_scratch',
      verbosity='default',
      prefix='H2graph',
      nstep=100,
      tstress = .false.,
      tprnfor = .true.,
      pseudo_dir = '../pseudo/',
      outdir = './SCRATCH'
   /
   &SYSTEM
      ibrav=4,
      celldm(1)=13.74703245    ! = 3* 1.40 * sqrt(3) Ang
      celldm(3)=2.000000,
      nat=20,
      ntyp=2,
      ecutwfc=40.0,
      ecutrho=160.0,
      occupations='smearing',
      smearing='gaussian',
      degauss=0.01,
      nspin=1,
   /
   &ELECTRONS
      electron_maxstep = 100,
      mixing_mode = 'plain',
      mixing_beta = 0.3,
      conv_thr =  1.0d-8,
   /
ATOMIC_SPECIES
  C    12.011    C.blyp-mt.UPF
  H     1.0      H.blyp-vbc.UPF
ATOMIC_POSITIONS {angstrom}
C       -1.212436676     -2.100000858      0.000000000
C       -0.000000145     -1.400000691      0.000000000
C       -2.424873352      0.000000000      0.000000000
C       -1.212436795      0.700000286      0.000000000
C       -3.637310028      2.100000858      0.000000000
C       -2.424873352      2.800001144      0.000000000
C        1.212436676     -2.100000858      0.000000000
C        2.424873114     -1.400000691      0.000000000
C        0.000000000      0.000000000      0.000000000
C        1.212436557      0.700000286      0.000000000
C       -1.212436676      2.100000858      0.000000000
C       -0.000000145      2.800001144      0.000000000
C        3.637310028     -2.100000858      0.000000000
C        4.849746704     -1.400000691      0.000000000
C        2.424873352      0.000000000      0.000000000
C        3.637310028      0.700000286      0.000000000
C        1.212436676      2.100000858      0.000000000
C        2.424873114      2.800001144      0.000000000
H        0.000000000      0.000000000      1.200000000
H        0.000000000      0.000000000      2.100000000
K_POINTS {automatic}
   2 2 1    1  1  0

