
&CONTROL
   prefix = 'H2graph'
   postfix = '_WanT'
   work_dir = './SCRATCH/'
/

&SUBSPACE
   dimwann  = 46
   froz_max = -1.0
   maxiter_dis = 5000
/

&LOCALIZATION
   a_condmin = 5.0
   wannier_thr = 1.0e-8
   maxiter0_wan = 100, 
   maxiter1_wan = 15000, 
/

WANNIER_CENTERS {angstrom}
1gauss   0.000000000    0.000000000    1.649999350   0  0    0.5    1.0
1gauss   1.818654178    2.450000035    0.000000000   0  0    0.5    1.0
1gauss   3.031090495    0.350000005    0.000000000   0  0    0.5    1.0
1gauss   4.243526693   -1.750000085    0.000000000   0  0    0.5    1.0
1gauss   0.606218027    2.450000035    0.000000000   0  0    0.5    1.0
1gauss   0.000000877    3.500000005    0.000000000   0  0    0.5    1.0
1gauss  -0.606218172    2.450000035    0.000000000   0  0    0.5    1.0
1gauss   1.212436139    1.400000020    0.000000000   0  0    0.5    1.0
1gauss   1.818654238    0.350000005    0.000000000   0  0    0.5    1.0
1gauss   0.606218040    0.350000005    0.000000000   0  0    0.5    1.0
1gauss   2.424872277   -0.700000070    0.000000000   0  0    0.5    1.0
1gauss   3.031090376   -1.750000085    0.000000000   0  0    0.5    1.0
1gauss   1.818654178   -1.750000085    0.000000000   0  0    0.5    1.0
1gauss  -1.818654297    2.450000035    0.000000000   0  0    0.5    1.0
1gauss  -2.424871447    3.500000005    0.000000000   0  0    0.5    1.0
1gauss  -4.243524913    2.450000035    0.000000000   0  0    0.5    1.0
1gauss  -3.637306695    1.400000020    0.000000000   0  0    0.5    1.0
1gauss  -3.031090495    2.450000035    0.000000000   0  0    0.5    1.0
1gauss  -1.212436258    1.400000020    0.000000000   0  0    0.5    1.0
1gauss  -0.606218159    0.350000005    0.000000000   0  0    0.5    1.0
1gauss  -3.031088596    0.350000005    0.000000000   0  0    0.5    1.0
1gauss  -2.424870497   -0.700000070    0.000000000   0  0    0.5    1.0
1gauss  -1.818654357    0.350000005    0.000000000   0  0    0.5    1.0
1gauss  -0.000000072   -0.700000070    0.000000000   0  0    0.5    1.0
1gauss   0.606218027   -1.750000085    0.000000000   0  0    0.5    1.0
1gauss  -1.212435368   -2.799999995    0.000000000   0  0    0.5    1.0
1gauss  -1.818652398   -1.750000085    0.000000000   0  0    0.5    1.0
1gauss  -0.606218172   -1.750000085    0.000000000   0  0    0.5    1.0
atomic   1   1 0    1.0
atomic   2   1 0    1.0
atomic   3   1 0    1.0
atomic   4   1 0    1.0
atomic   5   1 0    1.0
atomic   6   1 0    1.0
atomic   7   1 0    1.0
atomic   8   1 0    1.0
atomic   9   1 0    1.0
atomic  10   1 0    1.0
atomic  11   1 0    1.0
atomic  12   1 0    1.0
atomic  13   1 0    1.0
atomic  14   1 0    1.0
atomic  15   1 0    1.0
atomic  16   1 0    1.0
atomic  17   1 0    1.0
atomic  18   1 0    1.0

